p edge 255 15099
e 165 216
e 247 255
e 32 101
e 123 219
e 16 93
e 35 106
e 21 208
e 62 209
e 81 222
e 29 32
e 53 160
e 139 163
e 199 214
e 6 48
e 56 165
e 69 104
e 74 219
e 41 42
e 27 107
e 13 209
e 132 160
e 32 222
e 118 225
e 51 235
e 44 47
e 151 173
e 192 211
e 16 214
e 35 227
e 150 214
e 2 50
e 7 165
e 48 166
e 134 206
e 153 219
e 20 104
e 106 107
e 6 169
e 92 209
e 4 96
e 9 211
e 124 161
e 36 48
e 96 99
e 27 228
e 206 230
e 25 155
e 30 233
e 104 219
e 145 220
e 164 233
e 16 106
e 2 171
e 81 235
e 29 45
e 48 58
e 34 160
e 120 163
e 180 214
e 39 238
e 6 61
e 4 217
e 18 115
e 37 165
e 36 169
e 69 117
e 110 118
e 8 107
e 27 120
e 113 160
e 99 225
e 154 161
e 25 47
e 173 174
e 16 227
e 43 64
e 84 102
e 48 179
e 122 128
e 134 219
e 194 233
e 1 67
e 106 120
e 6 182
e 92 222
e 4 109
e 64 123
e 105 161
e 124 174
e 69 238
e 17 48
e 36 61
e 96 112
e 8 228
e 27 241
e 228 231
e 11 233
e 145 233
e 57 120
e 2 184
e 43 185
e 84 223
e 98 121
e 101 126
e 1 188
e 20 238
e 161 177
e 240 241
e 18 128
e 4 230
e 119 180
e 64 244
e 205 220
e 224 233
e 243 246
e 17 169
e 91 118
e 36 182
e 163 223
e 55 195
e 3 5
e 96 233
e 8 120
e 99 238
e 217 230
e 24 64
e 84 115
e 175 233
e 1 80
e 73 185
e 18 249
e 45 123
e 64 136
e 17 61
e 58 62
e 3 126
e 8 241
e 209 231
e 228 244
e 52 247
e 85 195
e 167 234
e 79 121
e 24 185
e 84 236
e 10 21
e 189 252
e 101 139
e 1 201
e 142 177
e 161 190
e 54 64
e 40 129
e 73 77
e 45 244
e 205 233
e 17 182
e 91 131
e 3 247
e 3 18
e 75 123
e 94 136
e 121 239
e 93 140
e 179 180
e 5 27
e 65 78
e 115 195
e 216 247
e 109 121
e 54 185
e 128 134
e 73 198
e 174 250
e 67 124
e 31 201
e 91 252
e 3 139
e 130 180
e 149 193
e 209 244
e 47 145
e 33 247
e 121 131
e 126 209
e 167 247
e 19 83
e 24 198
e 65 199
e 63 126
e 142 190
e 183 191
e 128 255
e 202 204
e 21 129
e 40 142
e 246 247
e 53 81
e 72 94
e 144 199
e 77 209
e 204 250
e 56 86
e 9 11
e 80 214
e 121 252
e 135 150
e 195 201
e 198 206
e 5 40
e 32 143
e 63 247
e 65 91
e 156 209
e 238 248
e 49 83
e 68 96
e 21 250
e 54 198
e 7 86
e 26 99
e 53 202
e 86 150
e 72 215
e 56 207
e 130 193
e 9 132
e 28 145
e 107 209
e 234 250
e 5 161
e 46 199
e 65 212
e 13 22
e 151 215
e 32 35
e 63 139
e 192 253
e 49 204
e 109 255
e 16 27
e 35 40
e 21 142
e 7 207
e 81 156
e 34 81
e 53 94
e 72 107
e 144 212
e 56 99
e 9 24
e 27 41
e 13 143
e 32 156
e 118 159
e 137 209
e 16 148
e 35 161
e 7 99
e 48 100
e 53 215
e 139 218
e 72 228
e 56 220
e 4 30
e 9 145
e 28 158
e 14 223
e 41 97
e 146 150
e 5 174
e 25 89
e 151 228
e 49 217
e 90 218
e 145 154
e 16 40
e 164 167
e 2 105
e 7 220
e 48 221
e 81 169
e 208 210
e 34 94
e 97 113
e 138 151
e 102 228
e 160 169
e 60 231
e 8 41
e 201 207
e 27 54
e 13 156
e 219 224
e 16 161
e 2 226
e 29 100
e 48 113
e 6 116
e 92 156
e 4 43
e 212 221
e 69 172
e 110 173
e 215 226
e 8 162
e 27 175
e 132 228
e 173 229
e 11 167
e 145 167
e 164 180
e 2 118
e 84 157
e 29 221
e 48 234
e 6 237
e 18 62
e 4 164
e 78 113
e 64 178
e 105 216
e 124 229
e 17 103
e 50 51
e 36 116
e 96 167
e 8 54
e 44 236
e 159 223
e 200 224
e 11 59
e 52 60
e 219 237
e 2 239
e 43 240
e 117 226
e 115 116
e 161 232
e 73 119
e 6 129
e 18 183
e 45 57
e 64 70
e 105 108
e 36 237
e 3 60
e 215 239
e 22 73
e 8 175
e 214 243
e 66 116
e 126 130
e 167 168
e 38 54
e 24 119
e 84 170
e 170 173
e 15 70
e 1 135
e 73 240
e 6 250
e 106 188
e 207 240
e 18 75
e 45 178
e 119 127
e 64 191
e 124 242
e 17 116
e 3 181
e 36 129
e 77 130
e 163 170
e 182 183
e 121 173
e 112 124
e 43 253
e 101 194
e 161 245
e 54 119
e 73 132
e 18 196
e 59 234
e 193 197
e 45 70
e 17 237
e 36 250
e 3 73
e 195 243
e 66 129
e 107 130
e 167 181
e 24 132
e 65 133
e 170 186
e 1 148
e 54 240
e 73 253
e 21 63
e 128 189
e 40 76
e 100 127
e 45 191
e 86 192
e 12 14
e 58 130
e 3 194
e 130 235
e 121 186
e 107 251
e 33 73
e 24 253
e 65 254
e 165 192
e 225 243
e 63 181
e 82 194
e 183 246
e 54 132
e 40 197
e 114 146
e 7 20
e 67 71
e 72 149
e 237 253
e 116 192
e 88 130
e 5 95
e 65 146
e 10 210
e 63 73
e 49 138
e 68 151
e 54 253
e 95 254
e 128 202
e 21 76
e 7 141
e 40 89
e 26 154
e 67 192
e 81 90
e 172 208
e 144 146
e 130 248
e 14 36
e 19 151
e 146 192
e 5 216
e 165 205
e 13 77
e 32 90
e 63 194
e 51 103
e 104 195
e 137 143
e 16 82
e 35 95
e 21 197
e 95 146
e 40 210
e 81 211
e 7 33
e 34 136
e 67 84
e 53 149
e 72 162
e 158 202
e 56 154
e 9 79
e 28 92
e 69 93
e 129 144
e 148 157
e 93 221
e 5 108
e 46 146
e 32 211
e 132 149
e 151 162
e 192 200
e 211 213
e 49 151
e 35 216
e 2 39
e 169 216
e 7 154
e 81 103
e 26 167
e 134 195
e 153 208
e 20 93
e 125 146
e 144 159
e 9 200
e 14 49
e 146 205
e 5 229
e 206 219
e 32 103
e 16 95
e 2 160
e 136 160
e 81 224
e 29 34
e 20 214
e 53 162
e 199 216
e 6 50
e 23 219
e 56 167
e 157 219
e 9 92
e 160 224
e 8 96
e 41 44
e 27 109
e 32 224
e 25 36
e 44 49
e 16 216
e 150 216
e 2 52
e 48 168
e 106 109
e 6 171
e 4 98
e 9 213
e 50 214
e 64 112
e 124 163
e 143 176
e 36 50
e 55 63
e 96 101
e 27 230
e 187 219
e 99 106
e 118 119
e 145 222
e 57 109
e 2 173
e 76 122
e 103 225
e 122 238
e 180 216
e 6 63
e 4 219
e 18 117
e 138 219
e 91 107
e 36 171
e 8 109
e 27 122
e 99 227
e 11 114
e 16 229
e 112 166
e 131 179
e 217 219
e 24 53
e 84 104
e 103 117
e 15 233
e 48 181
e 115 171
e 106 122
e 6 184
e 18 238
e 4 111
e 64 125
e 50 227
e 124 176
e 17 50
e 3 115
e 36 63
e 22 128
e 8 230
e 27 243
e 209 220
e 228 233
e 66 171
e 145 235
e 24 174
e 43 187
e 84 225
e 103 238
e 101 128
e 1 190
e 142 166
e 161 179
e 18 130
e 4 232
e 45 233
e 64 246
e 17 171
e 36 184
e 3 7
e 182 238
e 80 190
e 52 128
e 38 230
e 112 179
e 131 192
e 24 66
e 84 117
e 216 236
e 235 249
e 1 82
e 87 122
e 73 187
e 18 251
e 133 238
e 45 125
e 86 126
e 31 190
e 110 254
e 58 64
e 3 128
e 75 233
e 8 243
e 168 195
e 209 233
e 228 246
e 80 82
e 167 236
e 19 72
e 24 187
e 84 238
e 63 115
e 82 128
e 1 203
e 128 244
e 161 192
e 54 66
e 40 131
e 45 246
e 119 195
e 12 69
e 17 184
e 72 83
e 3 249
e 163 238
e 75 125
e 176 177
e 121 241
e 33 128
e 179 182
e 5 29
e 65 80
e 10 144
e 49 72
e 216 249
e 54 187
e 128 136
e 40 252
e 73 200
e 155 239
e 72 204
e 91 254
e 191 192
e 89 144
e 130 182
e 149 195
e 33 249
e 234 239
e 167 249
e 5 150
e 46 188
e 65 201
e 170 254
e 63 128
e 49 193
e 202 206
e 21 131
e 40 144
e 26 209
e 100 195
e 141 196
e 53 83
e 72 96
e 144 201
e 204 252
e 56 88
e 9 13
e 179 195
e 32 145
e 63 249
e 197 212
e 49 85
e 238 250
e 21 252
e 21 23
e 114 214
e 7 88
e 53 204
e 72 217
e 20 27
e 39 40
e 70 144
e 111 145
e 56 209
e 130 195
e 23 32
e 9 134
e 190 209
e 148 212
e 5 163
e 132 204
e 65 214
e 13 24
e 151 217
e 32 37
e 44 91
e 192 255
e 49 206
e 68 219
e 16 29
e 183 206
e 35 42
e 21 144
e 62 145
e 7 209
e 81 158
e 141 209
e 53 96
e 39 161
e 144 214
e 56 101
e 9 255
e 97 102
e 138 140
e 74 155
e 27 43
e 13 145
e 32 158
e 118 161
e 71 86
e 16 150
e 197 225
e 35 163
e 95 214
e 7 101
e 48 102
e 34 204
e 134 142
e 53 217
e 153 155
e 20 40
e 6 105
e 37 209
e 39 53
e 92 145
e 4 32
e 171 209
e 9 147
e 69 161
e 27 164
e 13 37
e 145 156
e 2 107
e 7 222
e 48 223
e 122 172
e 208 212
e 20 161
e 125 214
e 18 51
e 4 153
e 37 101
e 78 102
e 97 115
e 124 218
e 36 105
e 55 118
e 201 209
e 60 233
e 8 43
e 27 56
e 99 161
e 118 174
e 11 48
e 219 226
e 71 99
e 16 163
e 2 228
e 48 115
e 139 233
e 1 3
e 6 118
e 92 158
e 78 223
e 4 45
e 45 46
e 50 161
e 36 226
e 55 239
e 22 62
e 8 164
e 27 177
e 154 218
e 145 169
e 90 233
e 2 120
e 43 121
e 84 159
e 48 236
e 122 185
e 208 225
e 1 124
e 106 177
e 6 239
e 18 64
e 4 166
e 64 180
e 124 231
e 210 234
e 17 105
e 36 118
e 22 183
e 8 56
e 11 61
e 219 239
e 38 164
e 112 113
e 2 241
e 117 228
e 10 65
e 115 118
e 120 233
e 161 234
e 1 16
e 73 121
e 18 185
e 45 59
e 31 124
e 17 226
e 64 72
e 36 239
e 105 110
e 196 228
e 3 62
e 8 177
e 214 245
e 85 131
e 167 170
e 38 56
e 24 121
e 84 172
e 170 175
e 1 137
e 128 178
e 73 242
e 40 65
e 59 115
e 100 116
e 45 180
e 64 193
e 17 118
e 3 183
e 108 236
e 61 124
e 121 175
e 140 188
e 181 189
e 38 177
e 24 242
e 203 244
e 244 245
e 101 196
e 161 247
e 54 121
e 73 134
e 18 198
e 155 173
e 193 199
e 12 124
e 17 239
e 3 75
e 195 245
e 47 81
e 126 145
e 167 183
e 24 134
e 65 135
e 230 239
e 54 242
e 128 191
e 73 255
e 21 65
e 40 78
e 12 16
e 191 247
e 232 248
e 77 145
e 130 237
e 42 124
e 121 188
e 74 76
e 24 255
e 32 79
e 63 183
e 101 209
e 142 247
e 35 84
e 21 186
e 54 134
e 40 199
e 95 135
e 7 22
e 67 73
e 53 138
e 72 151
e 70 78
e 56 143
e 89 91
e 9 68
e 135 207
e 28 81
e 107 145
e 179 250
e 5 97
e 65 148
e 63 75
e 49 140
e 54 255
e 150 192
e 21 78
e 7 143
e 81 92
e 141 143
e 213 248
e 144 148
e 130 250
e 28 202
e 102 151
e 14 38
e 146 194
e 5 218
e 32 92
e 63 196
e 137 145
e 16 84
e 40 212
e 81 213
e 7 35
e 53 151
e 139 154
e 39 216
e 72 164
e 180 192
e 56 156
e 9 81
e 14 159
e 129 146
e 93 223
e 132 151
e 32 213
e 151 164
e 51 226
e 192 202
e 16 205
e 49 153
e 90 154
e 2 41
e 7 156
e 48 157
e 81 105
e 125 148
e 70 212
e 4 87
e 9 202
e 83 151
e 69 216
e 60 167
e 5 231
e 146 207
e 13 92
e 25 146
e 16 97
e 2 162
e 81 226
e 29 36
e 48 49
e 34 151
e 20 216
e 139 167
e 180 205
e 6 52
e 157 221
e 8 98
e 27 111
e 13 213
e 99 216
e 32 226
e 25 38
e 132 164
e 16 218
e 90 167
e 2 54
e 84 93
e 29 157
e 48 170
e 134 210
e 175 211
e 87 98
e 106 111
e 6 173
e 4 100
e 9 215
e 64 114
e 124 165
e 17 39
e 36 52
e 55 65
e 8 219
e 41 167
e 27 232
e 96 103
e 44 172
e 145 224
e 164 237
e 2 175
e 76 124
e 29 49
e 120 167
e 161 168
e 106 232
e 6 65
e 4 221
e 18 119
e 78 170
e 64 235
e 97 183
e 91 109
e 36 173
e 96 224
e 8 111
e 154 165
e 38 219
e 71 167
e 57 232
e 112 168
e 217 221
e 24 55
e 84 106
e 103 119
e 235 238
e 87 111
e 73 176
e 6 186
e 18 240
e 106 124
e 45 114
e 64 127
e 124 178
e 17 52
e 3 117
e 36 65
e 22 130
e 8 232
e 27 245
e 209 222
e 186 238
e 38 111
e 79 112
e 24 176
e 84 227
e 103 240
e 10 12
e 101 130
e 1 192
e 161 181
e 54 55
e 221 232
e 18 132
e 4 234
e 45 235
e 59 170
e 64 248
e 12 58
e 205 224
e 17 173
e 3 238
e 36 186
e 163 227
e 3 9
e 80 192
e 121 230
e 154 178
e 33 117
e 52 130
e 24 68
e 65 69
e 216 238
e 235 251
e 1 84
e 54 176
e 73 189
e 18 253
e 193 254
e 45 127
e 86 128
e 31 192
e 3 130
e 77 79
e 130 171
e 149 184
e 209 235
e 80 84
e 33 238
e 121 122
e 167 238
e 186 251
e 24 189
e 65 190
e 84 240
e 63 117
e 82 130
e 68 195
e 1 205
e 128 246
e 21 120
e 54 68
e 40 133
e 45 248
e 31 84
e 72 85
e 3 251
e 89 254
e 116 128
e 61 192
e 176 179
e 121 243
e 33 130
e 19 195
e 93 144
e 5 31
e 65 82
e 10 146
e 63 238
e 156 200
e 49 74
e 216 251
e 109 125
e 54 189
e 128 138
e 40 254
e 7 77
e 26 90
e 12 192
e 67 128
e 86 141
e 72 206
e 70 133
e 130 184
e 61 84
e 107 200
e 234 241
e 253 254
e 5 152
e 46 190
e 151 206
e 63 130
e 49 195
e 16 18
e 183 195
e 21 133
e 7 198
e 40 146
e 81 147
e 34 72
e 53 85
e 72 98
e 125 190
e 144 203
e 56 90
e 42 192
e 9 15
e 176 192
e 19 208
e 60 209
e 93 157
e 146 249
e 5 44
e 46 82
e 32 147
e 63 251
e 137 200
e 197 214
e 49 87
e 238 252
e 21 254
e 114 216
e 7 90
e 72 219
e 20 29
e 70 146
e 56 211
e 23 34
e 9 136
e 83 85
e 14 214
e 88 200
e 129 201
e 148 214
e 5 165
e 151 219
e 32 39
e 104 144
e 49 208
e 90 209
e 16 31
e 2 96
e 7 211
e 81 160
e 20 150
e 53 98
e 144 216
e 56 103
e 97 104
e 138 142
e 9 28
e 102 219
e 96 145
e 8 32
e 27 45
e 32 160
e 44 214
e 178 214
e 16 152
e 90 101
e 136 217
e 48 104
e 134 144
e 120 209
e 53 219
e 153 157
e 6 107
e 56 224
e 4 34
e 97 225
e 9 149
e 83 98
e 129 214
e 27 166
e 132 219
e 145 158
e 2 109
e 103 161
e 48 225
e 208 214
e 15 48
e 6 228
e 39 176
e 18 53
e 4 155
e 138 155
e 83 219
e 124 220
e 143 233
e 36 107
e 8 45
e 27 58
e 25 214
e 99 163
e 159 214
e 219 228
e 30 63
e 16 165
e 2 230
e 222 233
e 48 117
e 1 5
e 6 120
e 18 174
e 59 212
e 133 161
e 4 47
e 45 48
e 97 238
e 212 225
e 50 163
e 36 228
e 3 51
e 215 230
e 22 64
e 8 166
e 27 179
e 113 219
e 173 233
e 85 120
e 145 171
e 38 45
e 24 110
e 57 58
e 84 161
e 115 228
e 48 238
e 1 126
e 6 241
e 166 230
e 207 231
e 18 66
e 4 168
e 45 169
e 64 182
e 124 233
e 17 107
e 36 120
e 127 238
e 121 164
e 33 51
e 52 64
e 38 166
e 112 115
e 219 241
e 98 180
e 203 233
e 10 67
e 222 246
e 142 223
e 1 247
e 161 236
e 1 18
e 54 110
e 73 123
e 18 187
e 78 238
e 174 175
e 45 61
e 17 228
e 36 241
e 3 64
e 8 179
e 154 233
e 195 234
e 214 247
e 107 121
e 167 172
e 24 123
e 84 174
e 170 177
e 115 241
e 189 190
e 1 139
e 54 231
e 73 244
e 128 180
e 40 67
e 100 118
e 45 182
e 64 195
e 105 233
e 17 120
e 58 121
e 3 185
e 108 238
e 168 252
e 80 139
e 121 177
e 33 64
e 19 129
e 24 244
e 184 233
e 244 247
e 161 249
e 202 250
e 54 123
e 40 188
e 73 136
e 174 188
e 193 201
e 72 140
e 94 195
e 195 247
e 47 83
e 88 121
e 167 185
e 19 21
e 5 86
e 46 124
e 65 137
e 10 201
e 63 64
e 54 244
e 128 193
e 21 67
e 188 244
e 40 80
e 26 145
e 86 196
e 232 250
e 89 201
e 130 239
e 42 126
e 14 27
e 181 204
e 74 78
e 5 207
e 46 245
e 32 81
e 63 185
e 21 188
e 95 137
e 40 201
e 7 24
e 26 37
e 67 75
e 53 140
e 72 153
e 56 145
e 130 131
e 9 70
e 135 209
e 129 135
e 5 99
e 46 137
e 32 202
e 132 140
e 151 153
e 49 142
e 150 194
e 62 81
e 7 145
e 81 94
e 141 145
e 86 209
e 20 84
e 144 150
e 89 214
e 130 252
e 9 191
e 42 139
e 88 255
e 14 40
e 74 91
e 146 196
e 5 220
e 165 209
e 13 81
e 32 94
e 63 198
e 250 253
e 16 86
e 35 99
e 21 201
e 136 151
e 81 215
e 7 37
e 53 153
e 199 207
e 6 41
e 37 145
e 218 220
e 56 158
e 50 84
e 69 97
e 14 161
e 129 148
e 148 161
e 27 100
e 32 215
e 25 27
e 151 166
e 192 204
e 16 207
e 2 43
e 7 158
e 134 199
e 6 162
e 39 110
e 4 89
e 9 204
e 124 154
e 143 167
e 36 41
e 27 221
e 206 223
e 44 161
e 104 212
e 145 213
e 16 99
e 2 164
e 117 151
e 62 215
e 81 228
e 48 51
e 39 231
e 6 54
e 4 210
e 78 159
e 92 94
e 36 162
e 110 111
e 8 100
e 27 113
e 25 40
e 71 156
e 16 220
e 2 56
e 43 57
e 29 159
e 84 95
e 48 172
e 194 226
e 1 60
e 106 113
e 6 175
e 4 102
e 64 116
e 124 167
e 17 41
e 36 54
e 96 105
e 8 221
e 27 234
e 25 161
e 11 226
e 145 226
e 57 113
e 2 177
e 84 216
e 98 114
e 103 229
e 117 164
e 122 242
e 120 169
e 161 170
e 106 234
e 18 121
e 4 223
e 205 213
e 64 237
e 224 226
e 17 162
e 36 175
e 110 124
e 96 226
e 8 113
e 154 167
e 217 223
e 24 57
e 84 108
e 194 239
e 235 240
e 1 73
e 73 178
e 18 242
e 45 116
e 64 129
e 105 167
e 17 54
e 3 119
e 22 132
e 8 234
e 108 172
e 149 173
e 168 186
e 209 224
e 228 237
e 85 188
e 126 189
e 167 227
e 24 178
e 84 229
e 10 14
e 189 245
e 142 170
e 1 194
e 161 183
e 18 134
e 59 172
e 45 237
e 64 250
e 12 60
e 31 73
e 17 175
e 91 124
e 3 240
e 3 11
e 75 116
e 80 194
e 121 232
e 5 20
e 24 70
e 65 71
e 216 240
e 68 76
e 54 178
e 73 191
e 18 255
e 114 192
e 67 117
e 86 130
e 31 194
e 177 248
e 3 132
e 77 81
e 130 173
e 135 251
e 209 237
e 61 73
e 80 86
e 33 240
e 107 189
e 121 124
e 167 240
e 79 127
e 24 191
e 65 192
e 63 119
e 82 132
e 128 248
e 21 122
e 54 70
e 40 135
e 45 250
e 141 187
e 12 73
e 53 74
e 72 87
e 3 253
e 144 192
e 204 243
e 56 79
e 116 130
e 135 143
e 176 181
e 162 246
e 19 197
e 93 146
e 179 186
e 198 199
e 5 33
e 65 84
e 63 240
e 109 127
e 21 243
e 54 191
e 95 192
e 7 79
e 67 130
e 53 195
e 72 208
e 130 186
e 171 187
e 42 73
e 47 151
e 107 202
e 5 154
e 46 192
e 65 205
e 13 15
e 192 246
e 63 132
e 49 197
e 123 146
e 16 20
e 21 135
e 7 200
e 40 148
e 81 149
e 53 87
e 72 100
e 125 192
e 144 205
e 56 92
e 83 195
e 9 17
e 28 30
e 14 95
e 74 146
e 146 251
e 27 34
e 46 84
e 32 149
e 63 253
e 51 162
e 178 203
e 197 216
e 16 141
e 49 89
e 238 254
e 95 205
e 7 92
e 48 93
e 34 195
e 53 208
e 72 221
e 56 213
e 4 23
e 23 36
e 9 138
e 83 87
e 28 151
e 14 216
e 148 216
e 113 195
e 5 167
e 132 208
e 13 28
e 151 221
e 104 146
e 49 210
e 145 147
e 16 33
e 2 98
e 81 162
e 39 165
e 185 219
e 37 92
e 138 144
e 143 222
e 160 162
e 8 34
e 27 47
e 32 162
e 44 216
e 159 203
e 178 216
e 2 219
e 35 167
e 136 219
e 29 93
e 48 106
e 134 146
e 20 44
e 6 109
e 78 214
e 4 36
e 97 227
e 23 49
e 212 214
e 55 230
e 129 216
e 215 219
e 8 155
e 27 168
e 113 208
e 44 108
e 85 109
e 145 160
e 164 173
e 2 111
e 29 214
e 48 227
e 208 216
e 6 230
e 166 219
e 18 55
e 4 157
e 78 106
e 64 171
e 124 222
e 17 96
e 36 109
e 96 160
e 108 214
e 8 47
e 25 216
e 159 216
e 200 217
e 11 52
e 52 53
e 38 155
e 71 103
e 57 168
e 2 232
e 117 219
e 203 222
e 219 230
e 222 235
e 161 225
e 1 7
e 73 112
e 6 122
e 18 176
e 59 214
e 152 176
e 45 50
e 50 165
e 36 230
e 196 219
e 3 53
e 215 232
e 22 66
e 8 168
e 27 181
e 214 236
e 71 224
e 112 225
e 38 47
e 131 238
e 24 112
e 84 163
e 15 63
e 1 128
e 6 243
e 207 233
e 18 68
e 4 170
e 45 171
e 59 106
e 64 184
e 124 235
e 210 238
e 17 109
e 3 174
e 36 122
e 77 123
e 80 128
e 121 166
e 140 179
e 33 53
e 112 117
e 24 233
e 203 235
e 115 122
e 1 249
e 161 238
e 1 20
e 54 112
e 18 189
e 59 227
e 100 228
e 133 176
e 45 63
e 31 128
e 17 230
e 36 243
e 110 192
e 177 182
e 3 66
e 195 236
e 214 249
e 66 122
e 107 123
e 167 174
e 112 238
e 186 187
e 24 125
e 65 126
e 115 243
e 189 192
e 1 141
e 54 233
e 73 246
e 21 56
e 128 182
e 40 69
e 147 195
e 188 233
e 45 184
e 191 238
e 58 123
e 3 187
e 130 228
e 61 128
e 121 179
e 19 131
e 24 246
e 98 195
e 63 174
e 82 187
e 142 238
e 202 252
e 54 125
e 40 190
e 7 13
e 174 190
e 12 128
e 31 141
e 72 142
e 158 182
e 177 195
e 237 246
e 135 198
e 28 72
e 195 249
e 19 23
e 198 254
e 5 88
e 239 255
e 63 66
e 49 131
e 68 144
e 54 246
e 109 182
e 128 195
e 7 134
e 40 82
e 81 83
e 86 198
e 125 126
e 130 241
e 190 255
e 42 128
e 19 144
e 60 145
e 5 209
e 146 185
e 225 249
e 32 83
e 63 187
e 49 252
e 21 190
e 40 203
e 81 204
e 7 26
e 53 142
e 72 155
e 158 195
e 56 147
e 9 72
e 135 211
e 28 85
e 176 249
e 129 137
e 148 150
e 93 214
e 5 101
e 32 204
e 151 155
e 192 193
e 49 144
e 90 145
e 35 209
e 2 32
e 169 209
e 7 147
e 81 96
e 172 214
e 144 152
e 171 255
e 9 193
e 47 219
e 14 42
e 41 145
e 146 198
e 5 222
e 32 96
e 104 201
e 123 214
e 250 255
e 16 88
e 2 153
e 21 203
e 136 153
e 81 217
e 120 145
e 20 207
e 53 155
e 139 158
e 6 43
e 218 222
e 23 212
e 56 160
e 97 161
e 157 212
e 9 85
e 74 214
e 160 217
e 201 255
e 27 102
e 32 217
e 25 29
e 71 145
e 16 209
e 2 45
e 48 161
e 153 214
e 194 215
e 6 164
e 92 204
e 4 91
e 9 206
e 124 156
e 143 169
e 36 43
e 127 161
e 27 223
e 104 214
e 164 228
e 2 166
e 76 115
e 29 40
e 48 53
e 139 171
e 39 233
e 180 209
e 6 56
e 4 212
e 18 110
e 78 161
e 157 225
e 50 99
e 91 100
e 36 164
e 8 102
e 27 115
e 154 156
e 118 233
e 16 222
e 24 46
e 43 59
e 29 161
e 84 97
e 48 174
e 103 110
e 1 62
e 87 102
e 6 177
e 18 231
e 4 104
e 45 105
e 64 118
e 124 169
e 69 233
e 17 43
e 36 56
e 22 121
e 8 223
e 108 161
e 27 236
e 168 175
e 145 228
e 38 102
e 24 167
e 84 218
e 103 231
e 15 118
e 142 159
e 1 183
e 161 172
e 221 223
e 18 123
e 4 225
e 45 226
e 59 161
e 64 239
e 119 175
e 224 228
e 36 177
e 110 126
e 96 228
e 163 218
e 182 231
e 94 118
e 99 233
e 24 59
e 10 124
e 43 72
e 84 110
e 101 242
e 216 229
e 54 167
e 87 115
e 73 180
e 18 244
e 45 118
e 64 131
e 105 169
e 17 56
e 3 121
e 22 134
e 8 236
e 209 226
e 61 62
e 167 229
e 19 65
e 186 242
e 24 180
e 84 231
e 170 234
e 82 121
e 1 196
e 128 237
e 161 185
e 54 59
e 40 124
e 45 239
e 64 252
e 31 75
e 72 76
e 3 242
e 22 255
e 116 119
e 121 234
e 33 121
e 5 22
e 46 60
e 65 73
e 49 65
e 216 242
e 54 180
e 128 129
e 40 245
e 73 193
e 26 81
e 31 196
e 58 70
e 3 134
e 70 124
e 130 175
e 167 242
e 5 143
e 65 194
e 63 121
e 49 186
e 109 237
e 128 250
e 21 124
e 40 137
e 100 188
e 141 189
e 53 76
e 72 89
e 3 255
e 144 194
e 56 81
e 135 145
e 121 247
e 176 183
e 14 84
e 33 134
e 5 35
e 46 73
e 32 138
e 63 242
e 51 151
e 65 86
e 137 191
e 197 205
e 49 78
e 238 243
e 21 245
e 241 248
e 7 81
e 53 197
e 72 210
e 56 202
e 130 188
e 28 140
e 129 192
e 5 156
e 132 197
e 65 207
e 13 17
e 151 210
e 44 84
e 192 248
e 49 199
e 68 212
e 16 22
e 109 250
e 21 137
e 7 202
e 81 151
e 53 89
e 144 207
e 37 81
e 56 94
e 9 248
e 42 196
e 60 213
e 146 253
e 27 36
e 32 151
e 63 255
e 51 164
e 159 192
e 71 79
e 16 143
e 90 92
e 95 207
e 7 94
e 48 95
e 134 135
e 53 210
e 20 33
e 6 98
e 39 46
e 92 138
e 56 215
e 4 25
e 111 151
e 23 38
e 9 140
e 27 157
e 25 84
e 151 223
e 145 149
e 16 35
e 2 100
e 62 151
e 48 216
e 81 164
e 39 167
e 4 146
e 78 95
e 138 146
e 124 211
e 157 159
e 36 98
e 127 216
e 160 164
e 8 36
e 201 202
e 27 49
e 13 151
e 118 167
e 30 54
e 16 156
e 71 92
e 2 221
e 48 108
e 134 148
e 6 111
e 92 151
e 78 216
e 4 38
e 212 216
e 69 167
e 14 231
e 8 157
e 27 170
e 66 98
e 71 213
e 145 162
e 2 113
e 84 152
e 29 216
e 48 229
e 1 117
e 20 167
e 106 170
e 6 232
e 207 222
e 18 57
e 4 159
e 64 173
e 124 224
e 210 227
e 17 98
e 36 111
e 55 124
e 108 216
e 8 49
e 25 218
e 99 167
e 140 168
e 200 219
e 11 54
e 52 55
e 219 232
e 2 234
e 43 235
e 161 227
e 1 9
e 73 114
e 18 178
e 59 216
e 133 165
e 45 52
e 64 65
e 17 219
e 50 167
e 36 232
e 110 181
e 3 55
e 8 170
e 173 237
e 214 238
e 66 111
e 85 124
e 38 49
e 24 114
e 43 127
e 84 165
e 1 130
e 73 235
e 6 245
e 207 235
e 45 173
e 64 186
e 17 111
e 3 176
e 77 125
e 163 165
e 61 117
e 80 130
e 121 168
e 200 232
e 112 119
e 24 235
e 115 124
e 101 189
e 1 251
e 161 240
e 54 114
e 73 127
e 114 128
e 100 230
e 119 243
e 12 117
e 31 130
e 17 232
e 91 181
e 36 245
e 177 184
e 3 68
e 176 225
e 195 238
e 88 112
e 214 251
e 167 176
e 112 240
e 198 243
e 24 127
e 65 128
e 10 192
e 54 235
e 128 184
e 73 248
e 21 58
e 40 71
e 26 136
e 12 238
e 45 186
e 3 189
e 89 192
e 130 230
e 61 130
e 47 195
e 121 181
e 181 195
e 65 249
e 98 197
e 225 238
e 10 84
e 63 176
e 54 127
e 95 128
e 40 192
e 155 179
e 100 243
e 7 15
e 141 244
e 26 28
e 12 130
e 174 192
e 72 144
e 56 136
e 42 238
e 176 238
e 195 251
e 179 243
e 5 90
e 46 128
e 65 141
e 63 68
e 68 146
e 54 248
e 128 197
e 21 71
e 62 72
e 7 136
e 81 85
e 213 241
e 125 128
e 70 192
e 130 243
e 42 130
e 28 195
e 102 144
e 162 195
e 14 31
e 74 82
e 19 146
e 146 187
e 5 211
e 13 72
e 32 85
e 63 189
e 51 98
e 49 254
e 104 190
e 137 138
e 16 77
e 183 254
e 35 90
e 21 192
e 40 205
e 81 206
e 136 142
e 7 28
e 34 131
e 53 144
e 139 147
e 39 209
e 72 157
e 56 149
e 42 251
e 157 201
e 9 74
e 93 216
e 5 103
e 132 144
e 32 206
e 151 157
e 51 219
e 192 195
e 16 198
e 49 146
e 2 34
e 7 149
e 48 150
e 81 98
e 134 190
e 172 216
e 254 255
e 111 206
e 9 195
e 83 144
e 69 209
e 143 158
e 146 200
e 5 224
e 206 214
e 25 139
e 123 216
e 16 90
e 2 155
e 76 104
e 81 219
e 34 144
e 20 209
e 6 45
e 78 150
e 23 214
e 157 214
e 69 101
e 55 166
e 160 219
e 8 91
e 27 104
e 113 144
e 99 209
e 32 219
e 25 31
e 16 211
e 35 224
e 131 161
e 2 47
e 43 48
e 84 86
e 48 163
e 153 216
e 194 217
e 6 166
e 92 206
e 111 219
e 4 93
e 9 208
e 50 209
e 64 107
e 105 145
e 17 32
e 124 158
e 36 45
e 143 171
e 8 212
e 27 225
e 187 214
e 206 227
e 99 101
e 145 217
e 57 104
e 2 168
e 117 155
e 62 219
e 122 233
e 120 160
e 6 58
e 4 214
e 18 112
e 64 228
e 97 176
e 138 214
e 17 153
e 36 166
e 8 104
e 94 107
e 27 117
e 154 158
e 112 161
e 57 225
e 131 174
e 76 238
e 24 48
e 84 99
e 194 230
e 1 64
e 87 104
e 73 169
e 6 179
e 18 233
e 92 219
e 152 233
e 4 106
e 45 107
e 64 120
e 124 171
e 17 45
e 110 236
e 3 110
e 36 58
e 8 225
e 27 238
e 209 215
e 145 230
e 24 169
e 84 220
e 103 233
e 189 236
e 142 161
e 1 185
e 161 174
e 106 238
e 147 239
e 18 125
e 4 227
e 45 228
e 100 164
e 64 241
e 12 51
e 224 230
e 31 64
e 17 166
e 91 115
e 3 231
e 36 179
e 182 233
e 75 107
e 80 185
e 121 223
e 154 171
e 57 238
e 24 61
e 115 179
e 156 180
e 101 244
e 216 231
e 54 169
e 73 182
e 18 246
e 133 233
e 193 247
e 45 120
e 86 121
e 110 249
e 58 59
e 3 123
e 130 164
e 149 177
e 209 228
e 61 64
e 228 241
e 52 244
e 167 231
e 24 182
e 84 233
e 10 18
e 63 110
e 142 174
e 1 198
e 87 238
e 128 239
e 54 61
e 40 126
e 45 241
e 12 64
e 72 78
e 3 244
e 163 233
e 223 247
e 116 121
e 5 24
e 46 62
e 65 75
e 63 231
e 49 67
e 216 244
e 109 118
e 54 182
e 128 131
e 40 247
e 7 70
e 26 83
e 67 121
e 72 199
e 58 72
e 70 126
e 130 177
e 116 242
e 190 191
e 42 64
e 47 142
e 167 244
e 5 145
e 65 196
e 151 199
e 63 123
e 49 188
e 109 239
e 128 252
e 169 253
e 21 126
e 40 139
e 81 140
e 26 204
e 86 255
e 34 65
e 53 78
e 72 91
e 144 196
e 56 83
e 116 134
e 102 199
e 176 185
e 74 137
e 146 242
e 5 37
e 32 140
e 63 244
e 137 193
e 238 245
e 49 80
e 35 145
e 21 247
e 114 209
e 7 83
e 53 199
e 72 212
e 20 22
e 56 204
e 23 27
e 9 129
e 28 142
e 41 81
e 5 158
e 151 212
e 192 250
e 44 86
e 68 214
e 16 24
e 109 252
e 2 89
e 21 139
e 35 37
e 7 204
e 81 153
e 26 217
e 141 204
e 53 91
e 144 209
e 56 96
e 9 250
e 9 21
e 229 253
e 146 255
e 8 25
e 27 38
e 32 153
e 30 43
e 16 145
e 71 81
e 90 94
e 29 84
e 48 97
e 53 212
e 180 253
e 6 100
e 37 204
e 56 217
e 4 27
e 23 40
e 9 142
e 83 91
e 27 159
e 85 100
e 145 151
e 2 102
e 62 153
e 7 217
e 48 218
e 122 167
e 6 221
e 18 46
e 4 148
e 59 84
e 23 161
e 124 213
e 36 100
e 96 151
e 160 166
e 60 228
e 8 38
e 201 204
e 27 51
e 25 207
e 200 208
e 11 43
e 219 221
e 30 56
e 16 158
e 2 223
e 117 210
e 29 97
e 48 110
e 6 113
e 18 167
e 152 167
e 4 40
e 36 221
e 215 223
e 8 159
e 27 172
e 85 113
e 71 215
e 145 164
e 24 103
e 84 154
e 103 167
e 48 231
e 1 119
e 6 234
e 166 223
e 18 59
e 4 161
e 45 162
e 78 110
e 64 175
e 124 226
e 36 113
e 77 114
e 200 221
e 219 234
e 2 236
e 10 60
e 222 239
e 142 216
e 1 240
e 161 229
e 54 103
e 73 116
e 133 167
e 45 54
e 17 221
e 36 234
e 196 223
e 55 247
e 3 57
e 75 162
e 8 172
e 108 110
e 195 227
e 214 240
e 126 127
e 24 116
e 84 167
e 1 132
e 128 173
e 73 237
e 40 60
e 45 175
e 119 124
e 64 188
e 210 242
e 17 113
e 58 114
e 3 178
e 163 167
e 121 170
e 33 57
e 24 237
e 43 250
e 225 227
e 10 73
e 1 253
e 161 242
e 54 116
e 40 181
e 73 129
e 114 130
e 174 181
e 119 245
e 193 194
e 17 234
e 58 235
e 72 133
e 195 240
e 214 253
e 93 192
e 167 178
e 5 79
e 65 130
e 49 122
e 68 135
e 54 237
e 109 173
e 73 250
e 21 60
e 128 186
e 40 73
e 147 199
e 26 138
e 100 124
e 188 237
e 232 243
e 3 191
e 130 232
e 121 183
e 5 200
e 24 250
e 65 251
e 165 189
e 225 240
e 32 74
e 63 178
e 244 253
e 123 192
e 21 181
e 95 130
e 40 194
e 100 245
e 7 17
e 26 30
e 67 68
e 53 133
e 72 146
e 158 186
e 144 251
e 70 73
e 56 138
e 61 253
e 9 63
e 176 240
e 74 192
e 93 205
e 5 92
e 46 130
e 32 195
e 65 143
e 132 133
e 49 135
e 54 250
e 150 187
e 21 73
e 7 138
e 81 87
e 26 151
e 153 192
e 53 254
e 125 130
e 130 245
e 9 184
e 83 133
e 102 146
e 41 136
e 74 84
e 146 189
e 5 213
e 32 87
e 63 191
e 104 192
e 16 79
e 21 194
e 62 195
e 136 144
e 81 208
e 7 30
e 34 133
e 53 146
e 6 34
e 56 151
e 9 76
e 201 246
e 27 93
e 132 146
e 32 208
e 151 159
e 51 221
e 192 197
e 30 98
e 16 200
e 2 36
e 169 213
e 7 151
e 48 152
e 81 100
e 134 192
e 153 205
e 39 103
e 92 195
e 4 82
e 23 95
e 9 197
e 83 146
e 124 147
e 27 214
e 146 202
e 206 216
e 247 254
e 30 219
e 104 205
e 145 206
e 164 219
e 16 92
e 2 157
e 117 144
e 62 208
e 136 157
e 81 221
e 29 31
e 34 146
e 180 200
e 199 213
e 6 47
e 4 203
e 78 152
e 23 216
e 157 216
e 8 93
e 27 106
e 113 146
e 25 33
e 16 213
e 57 214
e 131 163
e 2 49
e 84 88
e 48 165
e 194 219
e 1 53
e 6 168
e 4 95
e 64 109
e 124 160
e 17 34
e 36 47
e 96 98
e 8 214
e 27 227
e 187 216
e 99 103
e 11 219
e 145 219
e 2 170
e 43 171
e 84 209
e 29 44
e 122 235
e 87 214
e 161 163
e 18 114
e 4 216
e 119 166
e 64 230
e 138 216
e 205 206
e 31 53
e 17 155
e 36 168
e 110 117
e 55 181
e 96 219
e 8 106
e 38 214
e 24 50
e 43 63
e 84 101
e 115 168
e 15 230
e 175 219
e 1 66
e 73 171
e 6 181
e 18 235
e 193 236
e 45 109
e 64 122
e 17 47
e 110 238
e 3 112
e 8 227
e 168 179
e 209 217
e 228 230
e 52 233
e 167 220
e 186 233
e 79 107
e 24 171
e 84 222
e 189 238
e 101 125
e 1 187
e 142 163
e 161 176
e 18 127
e 45 230
e 205 219
e 64 243
e 12 53
e 224 232
e 17 168
e 3 233
e 3 4
e 94 122
e 121 225
e 140 238
e 33 112
e 112 176
e 24 63
e 10 128
e 82 233
e 216 233
e 54 171
e 73 184
e 18 248
e 26 72
e 45 122
e 86 123
e 91 238
e 177 241
e 3 125
e 89 128
e 130 166
e 42 53
e 168 192
e 209 230
e 33 233
e 126 195
e 167 233
e 24 184
e 65 185
e 170 238
e 63 112
e 1 200
e 128 241
e 21 115
e 54 63
e 40 128
e 45 243
e 12 66
e 53 67
e 72 80
e 3 246
e 77 195
e 144 185
e 163 235
e 56 72
e 75 122
e 204 236
e 121 238
e 181 252
e 93 139
e 165 244
e 5 26
e 46 64
e 65 77
e 63 233
e 137 182
e 156 195
e 49 69
e 216 246
e 109 120
e 21 236
e 54 184
e 40 249
e 7 72
e 67 123
e 72 201
e 70 128
e 130 179
e 116 244
e 47 144
e 88 182
e 107 195
e 234 236
e 19 82
e 5 147
e 46 185
e 65 198
e 151 201
e 192 239
e 63 125
e 49 190
e 183 190
e 128 254
e 169 255
e 21 128
e 7 193
e 40 141
e 81 142
e 53 80
e 72 93
e 144 198
e 37 72
e 204 249
e 56 85
e 42 187
e 9 10
e 248 255
e 19 203
e 146 244
e 5 39
e 32 142
e 63 246
e 137 195
e 197 209
e 16 134
e 49 82
e 238 247
e 21 249
e 7 85
e 48 86
e 34 188
e 53 201
e 72 214
e 20 24
e 199 255
e 9 131
e 28 144
e 69 145
e 14 209
e 148 209
e 5 160
e 13 21
e 151 214
e 192 252
e 49 203
e 2 91
e 7 206
e 81 155
e 26 219
e 20 145
e 226 250
e 78 86
e 9 252
e 97 99
e 102 214
e 55 102
e 8 27
e 27 40
e 99 145
e 32 155
e 44 209
e 11 32
e 178 209
e 16 147
e 2 212
e 76 161
e 48 99
e 53 214
e 20 37
e 6 102
e 56 219
e 4 29
e 152 156
e 9 144
e 50 145
e 69 158
e 129 209
e 8 148
e 41 96
e 27 161
e 132 214
e 25 88
e 11 153
e 44 101
e 145 153
e 164 166
e 2 104
e 48 220
e 208 209
e 15 43
e 106 161
e 6 223
e 18 48
e 4 150
e 78 99
e 64 164
e 97 112
e 124 215
e 17 89
e 36 102
e 8 40
e 27 53
e 25 209
e 159 209
e 11 45
e 219 223
e 30 58
e 57 161
e 2 225
e 117 212
e 120 217
e 73 105
e 6 115
e 18 169
e 78 220
e 152 169
e 97 233
e 212 220
e 36 223
e 196 212
e 55 236
e 3 46
e 215 225
e 22 59
e 8 161
e 27 174
e 173 228
e 66 102
e 145 166
e 38 40
e 24 105
e 84 156
e 48 233
e 1 121
e 87 161
e 6 236
e 207 226
e 4 163
e 45 164
e 64 177
e 124 228
e 210 231
e 17 102
e 3 167
e 36 115
e 127 233
e 80 121
e 121 159
e 140 172
e 38 161
e 24 226
e 57 174
e 101 180
e 1 242
e 142 218
e 161 231
e 1 13
e 54 105
e 73 118
e 78 233
e 45 56
e 31 121
e 17 223
e 36 236
e 3 59
e 22 72
e 195 229
e 214 242
e 33 167
e 66 115
e 52 180
e 112 231
e 24 118
e 65 119
e 84 169
e 170 172
e 1 134
e 54 226
e 73 239
e 128 175
e 40 62
e 207 239
e 100 113
e 45 177
e 119 126
e 3 180
e 89 183
e 61 121
e 80 134
e 121 172
e 140 185
e 19 124
e 52 72
e 24 239
e 225 229
e 10 75
e 63 167
e 1 255
e 202 245
e 54 118
e 95 119
e 40 183
e 155 170
e 119 247
e 193 196
e 12 121
e 17 236
e 72 135
e 158 175
e 237 239
e 135 191
e 195 242
e 167 180
e 198 247
e 5 81
e 65 132
e 49 124
e 54 239
e 128 188
e 73 252
e 21 62
e 40 75
e 86 191
e 130 234
e 42 121
e 162 186
e 107 250
e 14 22
e 146 178
e 5 202
e 65 253
e 32 76
e 63 180
e 49 245
e 35 81
e 95 132
e 40 196
e 114 145
e 7 19
e 26 32
e 67 70
e 72 148
e 58 250
e 144 253
e 158 188
e 56 140
e 42 242
e 9 65
e 129 130
e 93 207
e 220 248
e 5 94
e 132 135
e 32 197
e 49 137
e 35 202
e 109 188
e 2 25
e 21 75
e 7 140
e 81 89
e 213 245
e 70 196
e 144 145
e 23 84
e 9 186
e 28 199
e 14 35
e 60 151
e 5 215
e 146 191
e 13 76
e 32 89
e 16 81
e 21 196
e 136 146
e 81 210
e 53 148
e 139 151
e 125 253
e 180 189
e 6 36
e 56 153
e 138 192
e 9 78
e 14 156
e 27 95
e 132 148
e 32 210
e 192 199
e 16 202
e 90 151
e 76 216
e 2 38
e 48 154
e 194 208
e 20 92
e 6 157
e 4 84
e 9 199
e 124 149
e 69 213
e 143 162
e 41 151
e 27 216
e 13 89
e 30 221
e 104 207
e 145 208
e 164 221
e 16 94
e 2 159
e 76 108
e 117 146
e 120 151
e 106 216
e 6 49
e 4 205
e 18 103
e 97 167
e 36 157
e 8 95
e 27 108
e 16 215
e 57 216
e 24 39
e 84 90
e 115 157
e 15 219
e 48 167
e 134 207
e 194 221
e 1 55
e 87 95
e 106 108
e 6 170
e 4 97
e 64 111
e 124 162
e 69 226
e 17 36
e 36 49
e 8 216
e 127 167
e 27 229
e 11 221
e 145 221
e 38 95
e 2 172
e 84 211
e 122 237
e 1 176
e 87 216
e 161 165
e 18 116
e 4 218
e 45 219
e 59 154
e 64 232
e 78 167
e 31 55
e 17 157
e 91 106
e 36 170
e 55 183
e 96 221
e 8 108
e 94 111
e 154 162
e 38 216
e 131 178
e 24 52
e 43 65
e 84 103
e 216 222
e 73 173
e 18 237
e 193 238
e 45 111
e 64 124
e 17 49
e 3 114
e 75 219
e 8 229
e 108 167
e 209 219
e 167 222
e 186 235
e 24 173
e 98 122
e 43 186
e 84 224
e 170 227
e 82 114
e 1 189
e 128 230
e 161 178
e 40 117
e 45 232
e 205 221
e 64 245
e 17 170
e 58 171
e 3 235
e 91 119
e 22 248
e 223 238
e 75 111
e 94 124
e 121 227
e 140 240
e 38 229
e 93 128
e 98 243
e 5 15
e 46 53
e 65 66
e 10 130
e 156 184
e 49 58
e 216 235
e 68 71
e 54 173
e 73 186
e 174 238
e 58 63
e 3 127
e 89 130
e 130 168
e 149 181
e 209 232
e 61 68
e 167 235
e 19 71
e 5 136
e 24 186
e 65 187
e 79 122
e 63 114
e 82 127
e 123 128
e 68 192
e 128 243
e 21 117
e 40 130
e 26 195
e 67 233
e 100 181
e 12 68
e 53 69
e 72 82
e 58 184
e 3 248
e 70 238
e 144 187
e 204 238
e 56 74
e 223 251
e 116 125
e 61 189
e 47 254
e 74 128
e 19 192
e 179 181
e 5 28
e 32 131
e 63 235
e 51 144
e 65 79
e 123 249
e 137 184
e 49 71
e 68 84
e 21 238
e 40 251
e 155 238
e 7 74
e 53 190
e 72 203
e 70 130
e 56 195
e 89 143
e 116 246
e 130 181
e 9 120
e 190 195
e 47 146
e 129 185
e 234 238
e 41 72
e 5 149
e 65 200
e 151 203
e 192 241
e 211 254
e 63 127
e 104 128
e 49 192
e 183 192
e 21 130
e 7 195
e 81 144
e 141 195
e 53 82
e 144 200
e 245 252
e 56 87
e 9 241
e 42 189
e 9 12
e 14 90
e 146 246
e 27 29
e 32 144
e 63 248
e 104 249
e 71 72
e 16 136
e 238 249
e 21 251
e 95 200
e 136 201
e 7 87
e 48 88
e 53 203
e 180 244
e 72 216
e 37 195
e 111 144
e 56 208
e 4 18
e 171 195
e 23 31
e 9 133
e 28 146
e 69 147
e 234 251
e 41 85
e 27 150
e 25 77
e 151 216
e 192 254
e 233 255
e 49 205
e 16 28
e 2 93
e 62 144
e 48 209
e 81 157
e 185 214
e 4 139
e 9 254
e 97 101
e 138 139
e 102 216
e 36 91
e 96 142
e 60 219
e 8 29
e 27 42
e 13 144
e 118 160
e 30 47
e 16 149
e 71 85
e 2 214
e 90 98
e 136 214
e 48 101
e 34 203
e 139 219
e 6 104
e 92 144
e 78 209
e 152 158
e 4 31
e 50 147
e 14 224
e 55 225
e 110 161
e 22 48
e 8 150
e 27 163
e 11 155
e 145 155
e 90 219
e 2 106
e 43 107
e 29 209
e 84 145
e 48 222
e 122 171
e 208 211
e 15 45
e 6 225
e 166 214
e 18 50
e 4 152
e 64 166
e 138 152
e 124 217
e 17 91
e 36 104
e 108 209
e 41 219
e 127 222
e 8 42
e 99 160
e 140 161
e 11 47
e 219 225
e 2 227
e 117 214
e 203 217
e 120 219
e 161 220
e 1 2
e 73 107
e 18 171
e 59 209
e 78 222
e 133 158
e 17 212
e 50 160
e 36 225
e 91 161
e 55 238
e 3 48
e 110 174
e 196 214
e 8 163
e 214 231
e 85 117
e 71 219
e 131 233
e 24 107
e 84 158
e 29 222
e 115 225
e 15 58
e 1 123
e 73 228
e 6 238
e 18 63
e 100 102
e 45 166
e 64 179
e 124 230
e 210 233
e 17 104
e 3 169
e 121 161
e 85 238
e 33 48
e 126 239
e 52 61
e 24 228
e 203 230
e 10 64
e 115 117
e 1 244
e 161 233
e 54 107
e 73 120
e 18 184
e 114 121
e 17 225
e 36 238
e 3 61
e 195 231
e 88 105
e 214 244
e 52 182
e 167 169
e 112 233
e 24 120
e 65 121
e 170 174
e 115 238
e 1 136
e 54 228
e 73 241
e 21 51
e 128 177
e 40 64
e 147 190
e 45 179
e 191 233
e 3 182
e 130 223
e 163 171
e 80 136
e 66 238
e 121 174
e 181 188
e 126 252
e 24 241
e 65 242
e 165 180
e 225 231
e 63 169
e 101 195
e 142 233
e 21 172
e 54 120
e 40 185
e 95 121
e 7 8
e 72 137
e 116 180
e 195 244
e 33 182
e 198 249
e 239 250
e 5 83
e 46 121
e 65 134
e 49 126
e 54 241
e 128 190
e 21 64
e 7 129
e 40 77
e 86 193
e 213 234
e 39 81
e 130 236
e 42 123
e 83 124
e 107 252
e 14 24
e 181 201
e 146 180
e 5 204
e 65 255
e 13 65
e 225 244
e 32 78
e 63 182
e 49 247
e 16 70
e 183 247
e 21 185
e 7 250
e 40 198
e 81 199
e 7 21
e 34 124
e 53 137
e 72 150
e 158 190
e 144 255
e 56 142
e 9 67
e 14 145
e 129 132
e 93 209
e 113 124
e 5 96
e 32 199
e 16 191
e 49 139
e 90 140
e 2 27
e 7 142
e 81 91
e 67 193
e 134 183
e 172 209
e 39 94
e 70 198
e 171 250
e 23 86
e 9 188
e 143 151
e 129 253
e 146 193
e 5 217
e 46 255
e 187 194
e 206 207
e 32 91
e 44 145
e 123 209
e 16 83
e 2 148
e 76 97
e 81 212
e 208 253
e 125 255
e 6 38
e 23 207
e 56 155
e 138 194
e 9 80
e 50 81
e 69 94
e 14 158
e 129 145
e 8 84
e 27 97
e 132 150
e 32 212
e 118 215
e 16 204
e 2 40
e 29 143
e 48 156
e 153 209
e 194 210
e 6 159
e 4 86
e 9 201
e 64 100
e 124 151
e 69 215
e 17 25
e 36 38
e 8 205
e 27 218
e 206 220
e 25 145
e 145 210
e 38 84
e 2 161
e 20 215
e 6 51
e 4 207
e 18 105
e 91 95
e 36 159
e 8 97
e 27 110
e 118 228
e 131 167
e 24 41
e 84 92
e 48 169
e 1 57
e 87 97
e 106 110
e 6 172
e 18 226
e 4 99
e 45 100
e 64 113
e 105 151
e 91 216
e 124 164
e 17 38
e 3 103
e 36 51
e 8 218
e 127 169
e 27 231
e 168 170
e 145 223
e 24 162
e 84 213
e 101 116
e 1 178
e 161 167
e 18 118
e 4 220
e 45 221
e 59 156
e 64 234
e 12 44
e 17 159
e 36 172
e 110 121
e 182 226
e 121 216
e 52 116
e 112 167
e 24 54
e 84 105
e 216 224
e 235 237
e 54 162
e 18 239
e 193 240
e 45 113
e 86 114
e 3 116
e 130 157
e 22 129
e 149 170
e 42 44
e 209 221
e 66 172
e 167 224
e 79 111
e 24 175
e 98 124
e 43 188
e 84 226
e 63 103
e 142 167
e 1 191
e 128 232
e 40 119
e 45 234
e 119 183
e 205 223
e 12 57
e 17 172
e 58 173
e 3 237
e 163 226
e 121 229
e 93 130
e 79 232
e 5 17
e 65 68
e 63 224
e 137 173
e 49 60
e 216 237
e 68 73
e 54 175
e 109 111
e 40 240
e 73 188
e 7 63
e 67 114
e 72 192
e 58 65
e 70 119
e 130 170
e 75 234
e 107 186
e 167 237
e 19 73
e 5 138
e 79 124
e 65 189
e 211 243
e 63 116
e 49 181
e 123 130
e 128 245
e 21 119
e 40 132
e 81 133
e 141 184
e 34 58
e 53 71
e 72 84
e 58 186
e 144 189
e 37 63
e 56 76
e 61 191
e 102 192
e 176 178
e 162 243
e 14 79
e 74 130
e 19 194
e 146 235
e 179 183
e 5 30
e 32 133
e 63 237
e 51 146
e 123 251
e 49 73
e 109 124
e 21 240
e 40 253
e 241 243
e 7 76
e 53 192
e 72 205
e 199 246
e 56 197
e 9 122
e 5 151
e 132 192
e 32 254
e 151 205
e 192 243
e 104 130
e 49 194
e 16 17
e 21 132
e 7 197
e 81 146
e 141 197
e 53 84
e 125 189
e 56 89
e 9 243
e 83 192
e 9 14
e 41 195
e 146 248
e 27 31
e 32 146
e 159 187
e 30 36
e 197 213
e 238 251
e 21 253
e 62 254
e 48 90
e 34 192
e 53 205
e 20 28
e 6 93
e 111 146
e 56 210
e 4 20
e 23 33
e 9 135
e 83 84
e 14 213
e 129 200
e 148 213
e 27 152
e 113 192
e 132 205
e 151 218
e 85 93
e 71 195
e 16 30
e 2 95
e 62 146
e 48 211
e 15 34
e 6 214
e 18 39
e 4 141
e 97 103
e 138 141
e 124 206
e 143 219
e 36 93
e 96 144
e 8 31
e 27 44
e 13 146
e 25 200
e 200 201
e 11 36
e 30 49
e 16 151
e 57 152
e 2 216
e 71 87
e 76 165
e 136 216
e 48 103
e 134 143
e 6 106
e 18 160
e 92 146
e 152 160
e 4 33
e 50 149
e 36 214
e 215 216
e 22 50
e 8 152
e 27 165
e 154 206
e 173 219
e 85 106
e 145 157
e 84 147
e 48 224
e 15 47
e 1 112
e 6 227
e 166 216
e 18 52
e 4 154
e 45 155
e 64 168
e 105 206
e 124 219
e 17 93
e 36 106
e 8 44
e 66 214
e 200 214
e 11 49
e 219 227
e 2 229
e 203 219
e 10 53
e 222 232
e 15 168
e 1 233
e 161 222
e 1 4
e 54 96
e 73 109
e 152 173
e 45 47
e 17 214
e 36 227
e 196 216
e 3 50
e 22 63
e 8 165
e 154 219
e 214 233
e 66 106
e 11 170
e 24 109
e 43 122
e 84 160
e 115 227
e 1 125
e 128 166
e 147 179
e 40 53
e 45 168
e 31 233
e 64 181
e 105 219
e 17 106
e 58 107
e 3 171
e 168 238
e 80 125
e 66 227
e 121 163
e 52 63
e 79 166
e 24 230
e 98 179
e 43 243
e 184 219
e 10 66
e 1 246
e 161 235
e 54 109
e 40 174
e 59 224
e 73 122
e 114 123
e 119 238
e 155 161
e 12 112
e 17 227
e 158 166
e 177 179
e 3 63
e 61 233
e 135 182
e 195 233
e 214 246
e 167 171
e 198 238
e 5 72
e 65 123
e 68 128
e 54 230
e 128 179
e 73 243
e 21 53
e 147 192
e 40 66
e 12 233
e 31 246
e 191 235
e 232 236
e 3 184
e 130 225
e 61 125
e 47 190
e 121 176
e 33 63
e 126 254
e 19 128
e 24 243
e 65 244
e 225 233
e 32 67
e 63 171
e 244 246
e 35 72
e 21 174
e 95 123
e 40 187
e 155 174
e 100 238
e 7 10
e 174 187
e 53 126
e 72 139
e 158 179
e 144 244
e 177 192
e 56 131
e 42 233
e 9 56
e 135 195
e 176 233
e 195 246
e 88 120
e 179 238
e 32 188
e 65 136
e 49 128
e 54 243
e 21 66
e 7 131
e 26 144
e 153 185
e 53 247
e 86 195
e 232 249
e 56 252
e 89 200
e 130 238
e 9 177
e 83 126
e 74 77
e 146 182
e 5 206
e 165 195
e 32 80
e 63 184
e 104 185
e 49 249
e 16 72
e 21 187
e 62 188
e 7 252
e 81 201
e 136 137
e 7 23
e 53 139
e 139 142
e 72 152
e 6 27
e 56 144
e 116 195
e 9 69
e 129 134
e 220 252
e 27 86
e 32 201
e 151 152
e 51 214
e 16 193
e 2 29
e 7 144
e 48 145
e 81 93
e 134 185
e 4 75
e 9 190
e 41 142
e 60 155
e 5 219
e 146 195
e 206 209
e 145 199
e 250 252
e 16 85
e 2 150
e 81 214
e 20 204
e 139 155
e 199 206
e 6 40
e 37 144
e 78 145
e 23 209
e 157 209
e 55 161
e 96 199
e 160 214
e 201 252
e 8 86
e 27 99
e 16 206
e 76 220
e 2 42
e 29 145
e 48 158
e 134 198
e 6 161
e 111 214
e 4 88
e 64 102
e 124 153
e 17 27
e 36 40
e 108 145
e 8 207
e 27 220
e 187 209
e 85 161
e 145 212
e 2 163
e 84 202
e 29 37
e 18 107
e 4 209
e 59 145
e 64 223
e 138 209
e 31 46
e 17 148
e 36 161
e 8 99
e 94 102
e 38 207
e 76 233
e 43 56
e 84 94
e 103 107
e 115 161
e 1 59
e 73 164
e 6 174
e 18 228
e 152 228
e 193 229
e 45 102
e 64 115
e 17 40
e 3 105
e 8 220
e 168 172
e 209 210
e 66 161
e 30 238
e 126 175
e 167 213
e 24 164
e 84 215
e 15 115
e 142 156
e 1 180
e 161 169
e 106 233
e 147 234
e 18 120
e 45 223
e 119 172
e 64 236
e 224 225
e 31 59
e 17 161
e 91 110
e 3 226
e 36 174
e 75 102
e 94 115
e 121 218
e 33 105
e 79 221
e 24 56
e 10 121
e 216 226
e 235 239
e 54 164
e 73 177
e 18 241
e 12 167
e 45 115
e 3 118
e 89 121
e 130 159
e 42 46
e 168 185
e 209 223
e 47 124
e 33 226
e 52 239
e 167 226
e 19 62
e 24 177
e 65 178
e 10 13
e 63 105
e 82 118
e 189 244
e 1 193
e 128 234
e 21 108
e 54 56
e 40 121
e 45 236
e 53 60
e 72 73
e 3 239
e 223 242
e 42 167
e 75 115
e 80 193
e 121 231
e 181 245
e 165 237
e 5 19
e 65 70
e 63 226
e 156 188
e 49 62
e 216 239
e 54 177
e 40 242
e 7 65
e 26 78
e 72 194
e 70 121
e 130 172
e 75 236
e 42 59
e 28 124
e 5 140
e 65 191
e 151 194
e 192 232
e 63 118
e 49 183
e 68 196
e 128 247
e 169 248
e 21 121
e 7 186
e 40 134
e 81 135
e 172 253
e 53 73
e 72 86
e 144 191
e 37 65
e 56 78
e 28 245
e 14 81
e 93 145
e 146 237
e 5 32
e 32 135
e 63 239
e 51 148
e 137 188
e 238 240
e 16 127
e 49 75
e 21 242
e 40 255
e 241 245
e 7 78
e 26 91
e 34 181
e 53 194
e 72 207
e 199 248
e 70 134
e 56 199
e 171 186
e 190 199
e 9 124
e 234 242
e 5 153
e 46 191
e 13 14
e 151 207
e 44 81
e 192 245
e 49 196
e 123 145
e 16 19
e 2 84
e 7 199
e 34 73
e 39 151
e 144 204
e 226 243
e 78 79
e 9 245
e 83 194
e 9 16
e 60 210
e 8 20
e 146 250
e 27 33
e 187 251
e 99 138
e 32 148
e 118 151
e 30 38
e 16 140
e 197 215
e 2 205
e 76 154
e 117 192
e 238 253
e 48 92
e 53 207
e 6 95
e 92 135
e 56 212
e 4 22
e 9 137
e 69 151
e 55 216
e 8 141
e 27 154
e 25 81
e 11 146
e 71 197
e 145 146
e 2 97
e 48 213
e 122 162
e 15 36
e 20 151
e 6 216
e 18 41
e 4 143
e 78 92
e 64 157
e 97 105
e 124 208
e 138 143
e 36 95
e 96 146
e 8 33
e 27 46
e 99 151
e 85 216
e 200 203
e 11 38
e 2 218
e 76 167
e 203 208
e 29 92
e 15 157
e 139 223
e 6 108
e 18 162
e 59 200
e 133 149
e 4 35
e 212 213
e 50 151
e 91 152
e 36 216
e 196 205
e 3 39
e 8 154
e 94 157
e 27 167
e 145 159
e 24 98
e 84 149
e 115 216
e 48 226
e 15 49
e 1 114
e 106 167
e 6 229
e 166 218
e 207 219
e 18 54
e 4 156
e 45 157
e 64 170
e 124 221
e 17 95
e 3 160
e 36 108
e 77 109
e 121 152
e 66 216
e 33 39
e 200 216
e 219 229
e 24 219
e 57 167
e 43 232
e 1 235
e 161 224
e 1 6
e 54 98
e 73 111
e 18 175
e 59 213
e 45 49
e 17 216
e 91 165
e 36 229
e 3 52
e 22 65
e 75 157
e 195 222
e 214 235
e 107 109
e 112 224
e 24 111
e 43 124
e 84 162
e 1 127
e 54 219
e 73 232
e 87 167
e 128 168
e 40 55
e 188 219
e 45 170
e 210 237
e 3 173
e 89 176
e 121 165
e 66 229
e 33 52
e 52 65
e 63 160
e 1 248
e 161 237
e 202 238
e 54 111
e 40 176
e 155 163
e 17 229
e 72 128
e 158 168
e 177 181
e 61 235
e 135 184
e 195 235
e 214 248
e 107 122
e 19 238
e 167 173
e 198 240
e 5 74
e 65 125
e 170 178
e 49 117
e 68 130
e 54 232
e 128 181
e 73 245
e 21 55
e 40 68
e 86 184
e 72 249
e 232 238
e 58 122
e 130 227
e 102 128
e 47 192
e 162 179
e 181 192
e 19 130
e 146 171
e 5 195
e 46 233
e 65 246
e 32 69
e 63 173
e 49 238
e 123 187
e 183 238
e 202 251
e 21 176
e 40 189
e 7 12
e 141 241
e 53 128
e 72 141
e 144 246
e 56 133
e 9 58
e 47 84
e 220 241
e 239 254
e 32 190
e 49 130
e 35 195
e 109 181
e 150 182
e 169 195
e 21 68
e 7 133
e 81 82
e 26 146
e 53 249
e 213 238
e 20 72
e 111 190
e 56 254
e 130 240
e 190 254
e 9 179
e 83 128
e 28 192
e 162 192
e 14 28
e 74 79
e 60 144
e 5 208
e 46 246
e 146 184
e 13 69
e 32 82
e 49 251
e 16 74
e 21 189
e 62 190
e 7 254
e 81 203
e 136 139
e 34 128
e 53 141
e 139 144
e 39 206
e 180 182
e 6 29
e 56 146
e 9 71
e 50 72
e 69 85
e 129 136
e 74 200
e 27 88
e 113 128
e 132 141
e 32 203
e 151 154
e 16 195
e 150 195
e 2 31
e 7 146
e 48 147
e 34 249
e 153 200
e 6 150
e 37 254
e 4 77
e 9 192
e 124 142
e 41 144
e 27 209
e 60 157
e 25 136
e 30 214
e 145 201
e 164 214
e 16 87
e 250 254
e 2 152
e 136 152
e 15 91
e 120 144
e 180 195
e 39 219
e 6 42
e 4 198
e 18 96
e 36 150
e 160 216
e 8 88
e 27 101
e 25 28
e 118 219
e 71 144
e 16 208
e 57 209
e 76 222
e 24 32
e 43 45
e 48 160
e 194 214
e 1 48
e 6 163
e 92 203
e 133 204
e 152 217
e 4 90
e 45 91
e 64 104
e 124 155
e 69 219
e 17 29
e 36 42
e 8 209
e 27 222
e 11 214
e 145 214
e 2 165
e 84 204
e 98 102
e 1 169
e 87 209
e 18 109
e 4 211
e 78 160
e 119 161
e 64 225
e 31 48
e 17 150
e 91 99
e 36 163
e 96 214
e 75 91
e 8 101
e 94 104
e 154 155
e 99 219
e 38 209
e 112 158
e 131 171
e 76 235
e 24 45
e 43 58
e 84 96
e 15 225
e 175 214
e 1 61
e 73 166
e 18 230
e 45 104
e 64 117
e 17 42
e 110 233
e 3 107
e 8 222
e 149 161
e 168 174
e 209 212
e 167 215
e 24 166
e 98 115
e 84 217
e 189 233
e 142 158
e 1 182
e 128 223
e 161 171
e 40 110
e 100 161
e 45 225
e 205 214
e 64 238
e 12 48
e 17 163
e 3 228
e 223 231
e 121 220
e 140 233
e 93 121
e 79 223
e 112 171
e 5 8
e 115 176
e 15 238
e 156 177
e 49 51
e 216 228
e 54 166
e 73 179
e 18 243
e 155 218
e 193 244
e 86 118
e 158 223
e 91 233
e 70 110
e 3 120
e 130 161
e 94 238
e 42 48
e 209 225
e 47 126
e 126 190
e 167 228
e 19 64
e 24 179
e 65 180
e 170 233
e 63 107
e 128 236
e 21 110
e 40 123
e 12 61
e 53 62
e 72 75
e 3 241
e 144 180
e 56 67
e 116 118
e 47 247
e 80 195
e 121 233
e 162 234
e 74 121
e 93 134
e 5 21
e 46 59
e 32 124
e 63 228
e 65 72
e 137 177
e 49 64
e 68 77
e 21 231
e 40 244
e 155 231
e 7 67
e 67 118
e 53 183
e 72 196
e 177 249
e 218 250
e 56 188
e 89 136
e 116 239
e 130 174
e 9 113
e 171 175
e 88 177
e 5 142
e 65 193
e 151 196
e 192 234
e 211 247
e 63 120
e 104 121
e 49 185
e 68 198
e 21 123
e 62 124
e 7 188
e 81 137
e 141 188
e 53 75
e 144 193
e 204 244
e 56 80
e 248 250
e 146 239
e 13 124
e 32 137
e 63 241
e 197 204
e 16 129
e 238 242
e 21 244
e 241 247
e 7 80
e 48 81
e 53 196
e 72 209
e 92 124
e 4 11
e 23 24
e 9 126
e 28 139
e 27 143
e 132 196
e 13 16
e 151 209
e 192 247
e 233 248
e 104 134
e 16 250
e 49 198
e 16 21
e 236 253
e 2 86
e 7 201
e 48 202
e 81 150
e 122 151
e 134 242
e 4 132
e 78 81
e 23 145
e 9 247
e 83 196
e 102 209
e 41 199
e 8 22
e 27 35
e 159 191
e 104 255
e 11 27
e 30 40
e 16 142
e 71 78
e 2 207
e 90 91
e 29 81
e 48 94
e 20 32
e 6 97
e 4 24
e 22 41
e 8 143
e 27 156
e 132 209
e 30 161
e 71 199
e 145 148
e 217 253
e 2 99
e 84 138
e 103 151
e 48 215
e 134 255
e 87 143
e 6 218
e 18 43
e 4 145
e 59 81
e 78 94
e 64 159
e 138 145
e 124 210
e 17 84
e 36 97
e 8 35
e 200 205
e 11 40
e 38 143
e 2 220
e 222 223
e 15 159
e 161 213
e 73 100
e 6 110
e 133 151
e 17 205
e 36 218
e 110 167
e 3 41
e 22 54
e 8 156
e 154 210
e 214 224
e 11 161
e 24 100
e 84 151
e 103 164
e 1 116
e 73 221
e 6 231
e 106 169
e 207 221
e 18 56
e 45 159
e 64 172
e 124 223
e 210 226
e 17 97
e 3 162
e 36 110
e 80 116
e 121 154
e 140 167
e 33 41
e 200 218
e 52 54
e 24 221
e 1 237
e 161 226
e 54 100
e 73 113
e 18 177
e 100 216
e 119 229
e 12 103
e 17 218
e 91 167
e 36 231
e 3 54
e 195 224
e 214 237
e 107 111
e 112 226
e 24 113
e 65 114
e 1 129
e 54 221
e 73 234
e 21 44
e 128 170
e 40 57
e 147 183
e 100 108
e 45 172
e 3 175
e 77 124
e 130 216
e 163 164
e 61 116
e 80 129
e 121 167
e 33 54
e 24 234
e 65 235
e 165 173
e 63 162
e 1 250
e 183 227
e 21 165
e 54 113
e 40 178
e 95 114
e 72 130
e 177 183
e 28 60
e 195 237
e 47 73
e 107 124
e 5 76
e 65 127
e 51 192
e 49 119
e 68 132
e 54 234
e 128 183
e 169 184
e 21 57
e 7 122
e 40 70
e 172 189
e 72 251
e 213 227
e 58 124
e 130 229
e 102 130
e 14 17
e 19 132
e 146 173
e 5 197
e 65 248
e 151 251
e 32 71
e 63 175
e 51 84
e 49 240
e 104 176
e 16 63
e 21 178
e 95 127
e 7 243
e 40 191
e 81 192
e 7 14
e 53 130
e 72 143
e 144 248
e 56 135
e 9 60
e 28 73
e 19 253
e 93 202
e 160 192
e 179 242
e 5 89
e 46 127
e 32 192
e 137 245
e 49 132
e 95 248
e 2 20
e 62 71
e 7 135
e 81 84
e 34 238
e 134 176
e 153 189
e 232 253
e 125 127
e 37 243
e 111 192
e 9 181
e 83 130
e 102 143
e 143 144
e 14 30
e 60 146
e 5 210
e 46 248
e 146 186
e 32 84
e 49 253
e 16 76
e 2 141
e 117 128
e 62 192
e 136 141
e 81 205
e 34 130
e 20 195
e 53 143
e 139 146
e 6 31
e 56 148
e 138 187
e 9 73
e 69 87
e 14 151
e 8 77
e 27 90
e 13 192
e 113 130
e 32 205
e 30 95
e 16 197
e 90 146
e 2 33
e 62 84
e 48 149
e 194 203
e 6 152
e 92 192
e 4 79
e 9 194
e 50 195
e 64 93
e 124 144
e 17 18
e 143 157
e 41 146
e 27 211
e 206 213
e 44 151
e 30 216
e 145 203
e 164 216
e 2 154
e 136 154
e 122 219
e 120 146
e 6 44
e 4 200
e 18 98
e 78 149
e 97 162
e 36 152
e 55 165
e 8 90
e 27 103
e 11 95
e 71 146
e 16 210
e 24 34
e 43 47
e 84 85
e 15 214
e 48 162
e 194 216
e 1 50
e 6 165
e 18 219
e 92 205
e 152 219
e 4 92
e 64 106
e 124 157
e 17 31
e 3 96
e 36 44
e 8 211
e 27 224
e 25 151
e 11 216
e 145 216
e 38 90
e 24 155
e 84 206
e 103 219
e 101 109
e 1 171
e 18 111
e 4 213
e 45 214
e 64 227
e 31 50
e 17 152
e 36 165
e 182 219
e 121 209
e 154 157
e 33 96
e 24 47
e 84 98
e 115 165
e 175 216
e 216 217
e 1 63
e 54 155
e 73 168
e 18 232
e 87 103
e 133 219
e 193 233
e 45 106
e 3 109
e 75 214
e 8 224
e 149 163
e 168 176
e 209 214
e 11 229
e 167 217
e 19 53
e 24 168
e 10 233
e 84 219
e 63 96
e 82 109
e 1 184
e 128 225
e 161 173
e 147 238
e 40 112
e 45 227
e 205 216
e 64 240
e 31 63
e 17 165
e 3 230
e 163 219
e 204 220
e 223 233
e 121 222
e 98 238
e 5 10
e 49 53
e 216 230
e 54 168
e 40 233
e 73 181
e 174 233
e 67 107
e 12 171
e 31 184
e 72 185
e 177 238
e 70 112
e 89 125
e 130 163
e 42 50
e 61 63
e 47 128
e 107 179
e 126 192
e 167 230
e 19 66
e 5 131
e 65 182
e 170 235
e 211 236
e 63 109
e 49 174
e 82 122
e 128 238
e 40 125
e 81 126
e 67 228
e 86 241
e 53 64
e 72 77
e 70 233
e 3 243
e 144 182
e 204 233
e 56 69
e 47 249
e 14 72
e 74 123
e 146 228
e 5 252
e 79 238
e 165 241
e 5 23
e 32 126
e 63 230
e 82 243
e 156 192
e 49 66
e 109 117
e 21 233
e 95 182
e 40 246
e 114 195
e 155 233
e 7 69
e 26 82
e 53 185
e 72 198
e 158 238
e 199 239
e 111 126
e 56 190
e 130 176
e 9 115
e 135 254
e 28 128
e 129 180
e 5 144
e 32 247
e 65 195
e 151 198
e 44 72
e 192 236
e 49 187
e 109 238
e 150 239
e 21 125
e 62 126
e 7 190
e 81 139
e 26 203
e 34 64
e 144 195
e 226 234
e 245 247
e 56 82
e 9 236
e 42 184
e 248 252
e 146 241
e 165 254
e 206 255
e 32 139
e 238 244
e 16 131
e 95 195
e 241 249
e 7 82
e 48 83
e 53 198
e 20 21
e 6 86
e 56 203
e 4 13
e 171 190
e 9 128
e 14 206
e 129 193
e 41 80
e 27 145
e 13 18
e 25 72
e 44 85
e 151 211
e 192 249
e 16 252
e 233 250
e 16 23
e 2 88
e 7 203
e 48 204
e 15 27
e 106 145
e 6 207
e 125 195
e 18 32
e 4 134
e 185 209
e 226 247
e 9 249
e 124 199
e 36 86
e 55 99
e 96 137
e 60 214
e 8 24
e 27 37
e 25 193
e 178 206
e 16 144
e 57 145
e 2 209
e 136 209
e 48 96
e 139 214
e 180 252
e 221 253
e 6 99
e 4 255
e 37 203
e 78 204
e 4 26
e 133 140
e 152 153
e 36 207
e 8 145
e 27 158
e 173 212
e 85 99
e 145 150
e 90 214
e 131 215
e 2 101
e 84 140
e 29 204
e 48 217
e 15 40
e 1 105
e 6 220
e 166 209
e 18 45
e 4 147
e 64 161
e 124 212
e 210 215
e 17 86
e 251 253
e 36 99
e 8 37
e 140 156
e 200 207
e 219 220
e 38 145
e 57 158
e 2 222
e 117 209
e 10 46
e 222 225
e 15 161
e 120 214
e 161 215
e 73 102
e 78 217
e 17 207
e 36 220
e 196 209
e 55 233
e 3 43
e 22 56
e 8 158
e 94 161
e 214 226
e 52 164
e 112 215
e 24 102
e 84 153
e 1 118
e 128 159
e 73 223
e 147 172
e 40 46
e 207 223
e 45 161
e 64 174
e 210 228
e 17 99
e 3 164
e 22 177
e 61 105
e 121 156
e 85 233
e 52 56
e 24 223
e 10 59
e 1 239
e 161 228
e 54 102
e 73 115
e 18 179
e 114 116
e 119 231
e 17 220
e 158 159
e 77 234
e 3 56
e 75 161
e 135 175
e 195 226
e 47 62
e 214 239
e 5 65
e 24 115
e 65 116
e 115 233
e 68 121
e 54 223
e 128 172
e 73 236
e 21 46
e 40 59
e 26 124
e 12 226
e 3 177
e 130 218
e 121 169
e 162 170
e 181 183
e 33 56
e 19 121
e 24 236
e 65 237
e 225 226
e 32 60
e 63 164
e 51 73
e 35 65
e 21 167
e 54 115
e 40 180
e 155 167
e 202 242
e 53 119
e 72 132
e 144 237
e 177 185
e 56 124
e 116 175
e 9 49
e 195 239
e 107 126
e 179 231
e 5 78
e 65 129
e 49 121
e 54 236
e 21 59
e 7 124
e 53 240
e 213 229
e 72 253
e 56 245
e 130 231
e 83 119
e 146 175
e 5 199
e 46 237
e 65 250
e 13 60
e 151 253
e 32 73
e 63 177
e 49 242
e 16 65
e 21 180
e 7 245
e 40 193
e 81 194
e 7 16
e 227 248
e 53 132
e 72 145
e 125 237
e 144 250
e 37 124
e 56 137
e 157 189
e 69 76
e 14 140
e 93 204
e 27 79
e 113 119
e 32 194
e 30 84
e 16 186
e 49 134
e 2 22
e 62 73
e 7 137
e 48 138
e 81 86
e 53 253
e 92 181
e 4 68
e 23 81
e 9 183
e 28 196
e 69 197
e 102 145
e 129 248
e 143 146
e 14 32
e 146 188
e 5 212
e 132 253
e 187 189
e 13 73
e 49 255
e 145 192
e 16 78
e 2 143
e 76 92
e 117 130
e 136 143
e 81 207
e 208 248
e 20 197
e 6 33
e 97 151
e 14 153
e 96 192
e 8 79
e 27 92
e 132 145
e 32 207
e 11 84
e 71 135
e 16 199
e 2 35
e 29 138
e 48 151
e 175 192
e 6 154
e 92 194
e 152 208
e 4 81
e 23 94
e 64 95
e 124 146
e 69 210
e 17 20
e 143 159
e 196 251
e 8 200
e 127 151
e 27 213
e 145 205
e 2 156
e 122 221
e 6 46
e 4 202
e 18 100
e 23 215
e 64 216
e 78 151
e 105 254
e 138 202
e 17 141
e 36 154
e 55 167
e 8 92
e 94 95
e 38 200
e 24 36
e 43 49
e 29 151
e 84 87
e 15 216
e 115 154
e 194 218
e 1 52
e 73 157
e 6 167
e 18 221
e 45 95
e 64 108
e 105 146
e 124 159
e 17 33
e 3 98
e 22 111
e 8 213
e 94 216
e 27 226
e 108 151
e 127 164
e 66 154
e 11 218
e 85 167
e 126 168
e 167 206
e 186 219
e 79 93
e 24 157
e 98 106
e 84 208
e 82 98
e 142 149
e 1 173
e 87 213
e 161 162
e 18 113
e 4 215
e 45 216
e 59 151
e 64 229
e 17 154
e 3 219
e 36 167
e 121 211
e 154 159
e 57 226
e 24 49
e 115 167
e 216 219
e 1 65
e 54 157
e 73 170
e 18 234
e 45 108
e 3 111
e 130 152
e 149 165
e 209 216
e 33 219
e 66 167
e 107 168
e 167 219
e 19 55
e 24 170
e 65 171
e 98 119
e 63 98
e 101 124
e 1 186
e 128 227
e 40 114
e 45 229
e 12 52
e 31 65
e 58 168
e 3 232
e 204 222
e 61 173
e 121 224
e 181 238
e 93 125
e 98 240
e 5 12
e 63 219
e 51 128
e 101 245
e 49 55
e 216 232
e 54 170
e 40 235
e 12 173
e 86 122
e 72 187
e 177 240
e 130 165
e 116 230
e 47 130
e 60 69
e 5 133
e 65 184
e 151 187
e 192 225
e 211 238
e 63 111
e 104 112
e 123 125
e 128 240
e 21 114
e 7 179
e 40 127
e 26 192
e 81 128
e 34 53
e 53 66
e 72 79
e 125 171
e 144 184
e 89 248
e 56 71
e 28 238
e 162 238
e 60 190
e 5 254
e 146 230
e 5 25
e 46 63
e 32 128
e 63 232
e 82 245
e 178 182
e 49 68
e 21 235
e 40 248
e 7 71
e 26 84
e 53 187
e 72 200
e 199 241
e 218 254
e 111 128
e 56 192
e 171 179
e 190 192
e 9 117
e 28 130
e 14 195
e 234 235
e 5 146
e 132 187
e 32 249
e 151 200
e 192 238
e 211 251
e 104 125
e 49 189
e 2 77
e 62 128
e 7 192
e 81 141
e 141 192
e 20 131
e 53 79
e 39 144
e 144 197
e 56 84
e 9 238
e 248 254
e 41 190
e 146 243
e 8 13
e 13 128
e 32 141
e 44 195
e 118 144
e 178 195
e 30 31
e 16 133
e 197 208
e 2 198
e 21 248
e 35 146
e 238 246
e 29 72
e 48 85
e 53 200
e 139 203
e 20 23
e 6 88
e 37 192
e 92 128
e 56 205
e 4 15
e 171 192
e 9 130
e 69 144
e 55 209
e 129 195
e 27 147
e 233 252
e 16 254
e 90 203
e 217 244
e 2 90
e 103 142
e 48 206
e 15 29
e 20 144
e 6 209
e 18 34
e 4 136
e 59 72
e 23 149
e 9 251
e 78 85
e 97 98
e 124 201
e 143 214
e 226 249
e 36 88
e 229 254
e 8 26
e 27 39
e 25 195
e 99 144
e 85 209
e 159 195
e 71 82
e 2 211
e 29 85
e 48 98
e 6 101
e 18 155
e 78 206
e 92 141
e 4 28
e 97 219
e 152 155
e 50 144
e 91 145
e 36 209
e 196 198
e 55 222
e 3 32
e 22 45
e 8 147
e 27 160
e 173 214
e 85 101
e 145 152
e 24 91
e 84 142
e 115 209
e 48 219
e 1 107
e 6 222
e 207 212
e 4 149
e 45 150
e 64 163
e 124 214
e 251 255
e 17 88
e 36 101
e 127 219
e 121 145
e 66 209
e 140 158
e 200 209
e 219 222
e 24 212
e 98 161
e 203 214
e 10 48
e 101 166
e 1 228
e 161 217
e 54 91
e 73 104
e 18 168
e 78 219
e 17 209
e 36 222
e 77 223
e 3 45
e 154 214
e 195 215
e 214 228
e 52 166
e 24 104
e 84 155
e 1 120
e 54 212
e 73 225
e 128 161
e 188 212
e 40 48
e 45 163
e 64 176
e 105 214
e 17 101
e 3 166
e 108 219
e 149 220
e 168 233
e 80 120
e 121 158
e 33 45
e 79 161
e 24 225
e 184 214
e 43 238
e 101 179
e 1 241
e 161 230
e 202 231
e 54 104
e 40 169
e 114 118
e 155 156
e 119 233
e 12 107
e 17 222
e 72 121
e 158 161
e 77 236
e 135 177
e 80 241
e 195 228
e 47 64
e 214 241
e 107 115
e 93 180
e 126 128
e 198 233
e 5 67
e 65 118
e 170 171
e 49 110
e 68 123
e 54 225
e 109 161
e 73 238
e 21 48
e 128 174
e 40 61
e 169 175
e 31 241
e 58 115
e 3 179
e 130 220
e 149 233
e 190 234
e 42 107
e 102 121
e 146 164
e 5 188
e 65 239
e 225 228
e 32 62
e 63 166
e 49 231
e 21 169
e 40 182
e 100 233
e 53 121
e 72 134
e 58 236
e 144 239
e 158 174
e 56 126
e 9 51
e 176 228
e 28 64
e 179 233
e 220 234
e 239 247
e 32 183
e 65 131
e 197 250
e 49 123
e 109 174
e 169 188
e 21 61
e 7 126
e 26 139
e 153 180
e 53 242
e 72 255
e 56 247
e 130 233
e 171 234
e 23 70
e 9 172
e 83 121
e 190 247
e 47 198
e 162 185
e 14 21
e 41 124
e 146 177
e 5 201
e 165 190
e 65 252
e 151 255
e 32 75
e 49 244
e 16 67
e 21 182
e 76 81
e 7 247
e 81 196
e 34 121
e 53 134
e 125 239
e 144 252
e 6 22
e 56 139
e 42 241
e 83 242
e 138 178
e 9 64
e 50 65
e 14 142
e 27 81
e 113 121
e 132 134
e 32 196
e 51 209
e 178 250
e 30 86
e 16 188
e 71 124
e 2 24
e 7 139
e 48 140
e 53 255
e 6 143
e 39 91
e 4 70
e 9 185
e 124 135
e 69 199
e 143 148
e 27 202
e 187 191
e 30 207
e 145 194
e 16 80
e 57 81
e 2 145
e 76 94
e 136 145
e 81 209
e 15 84
e 180 188
e 6 35
e 4 191
e 23 204
e 138 191
e 157 204
e 50 78
e 36 143
e 160 209
e 8 81
e 27 94
e 16 201
e 131 151
e 2 37
e 29 140
e 48 153
e 1 41
e 6 156
e 111 209
e 4 83
e 45 84
e 64 97
e 105 135
e 124 148
e 69 212
e 17 22
e 143 161
e 8 202
e 27 215
e 25 142
e 66 143
e 145 207
e 38 81
e 2 158
e 84 197
e 117 145
e 1 162
e 20 212
e 120 150
e 18 102
e 4 204
e 64 218
e 31 41
e 17 143
e 91 92
e 36 156
e 75 84
e 8 94
e 94 97
e 112 151
e 57 215
e 24 38
e 84 89
e 1 54
e 87 94
e 73 159
e 18 223
e 45 97
e 64 110
e 17 35
e 3 100
e 8 215
e 52 221
e 167 208
e 79 95
e 24 159
e 84 210
e 82 100
e 142 151
e 1 175
e 87 215
e 161 164
e 45 218
e 119 167
e 64 231
e 205 207
e 31 54
e 17 156
e 58 157
e 3 221
e 223 224
e 94 110
e 121 213
e 79 216
e 156 170
e 216 221
e 54 159
e 73 172
e 18 236
e 177 229
e 3 113
e 89 116
e 75 218
e 130 154
e 149 167
e 209 218
e 167 221
e 24 172
e 65 173
e 170 226
e 63 100
e 109 216
e 128 229
e 21 103
e 40 116
e 100 167
e 45 231
e 12 54
e 53 55
e 58 170
e 3 234
e 144 173
e 56 60
e 61 175
e 121 226
e 162 227
e 74 114
e 19 178
e 98 242
e 5 14
e 63 221
e 51 130
e 101 247
e 49 57
e 68 70
e 21 224
e 54 172
e 40 237
e 7 60
e 26 73
e 53 176
e 86 124
e 72 189
e 56 181
e 89 129
e 130 167
e 9 106
e 42 54
e 74 235
e 5 135
e 65 186
e 151 189
e 192 227
e 63 113
e 49 178
e 123 127
e 128 242
e 21 116
e 7 181
e 81 130
e 26 194
e 141 181
e 34 55
e 172 248
e 53 68
e 72 81
e 144 186
e 56 73
e 116 124
e 102 189
e 181 253
e 74 127
e 60 192
e 146 232
e 46 65
e 32 130
e 63 234
e 16 122
e 49 70
e 21 237
e 40 250
e 81 251
e 7 73
e 48 74
e 34 176
e 53 189
e 139 192
e 72 202
e 37 181
e 111 130
e 56 194
e 190 194
e 9 119
e 69 133
e 60 84
e 5 148
e 32 251
e 25 63
e 151 202
e 192 240
e 252 254
e 16 243
e 49 191
e 90 192
e 2 79
e 62 130
e 7 194
e 48 195
e 81 143
e 122 144
e 20 133
e 226 238
e 37 73
e 9 240
e 83 189
e 96 128
e 41 192
e 146 245
e 8 15
e 27 28
e 13 130
e 25 184
e 44 197
e 118 146
e 104 248
e 30 33
e 16 135
e 2 200
e 136 200
e 48 87
e 120 192
e 6 90
e 92 130
e 78 195
e 4 17
e 138 246
e 23 30
e 69 146
e 8 136
e 41 84
e 27 149
e 233 254
e 71 192
e 90 205
e 2 92
e 84 131
e 29 195
e 103 144
e 48 208
e 15 31
e 20 146
e 6 211
e 92 251
e 18 36
e 4 138
e 23 151
e 9 253
e 64 152
e 97 100
e 124 203
e 17 77
e 143 216
e 36 90
e 108 195
e 8 28
e 99 146
e 71 84
e 2 213
e 76 162
e 15 152
e 161 206
e 73 93
e 6 103
e 18 157
e 59 195
e 133 144
e 152 157
e 17 198
e 50 146
e 36 211
e 3 34
e 8 149
e 27 162
e 154 203
e 173 216
e 214 217
e 66 90
e 11 154
e 30 167
e 131 219
e 24 93
e 43 106
e 84 144
e 1 109
e 73 214
e 6 224
e 147 163
e 207 214
e 18 49
e 4 151
e 45 152
e 64 165
e 124 216
e 210 219
e 17 90
e 3 155
e 36 103
e 121 147
e 66 211
e 33 34
e 200 211
e 24 214
e 203 216
e 10 50
e 142 206
e 1 230
e 161 219
e 54 93
e 73 106
e 18 170
e 100 209
e 133 157
e 17 211
e 36 224
e 3 47
e 154 216
e 195 217
e 47 53
e 214 230
e 112 219
e 198 222
e 24 106
e 65 107
e 10 171
e 1 122
e 54 214
e 73 227
e 21 37
e 128 163
e 40 50
e 188 214
e 100 101
e 45 165
e 191 219
e 3 168
e 77 117
e 130 209
e 121 160
e 126 238
e 184 216
e 10 63
e 51 64
e 63 155
e 142 219
e 1 243
e 202 233
e 54 106
e 40 171
e 155 158
e 72 123
e 58 225
e 77 238
e 75 165
e 61 230
e 28 53
e 195 230
e 88 104
e 19 233
e 198 235
e 5 69
e 65 120
e 156 238
e 49 112
e 54 227
e 128 176
e 169 177
e 21 50
e 7 115
e 40 63
e 26 128
e 213 220
e 72 244
e 232 233
e 130 222
e 107 238
e 146 166
e 5 190
e 65 241
e 151 244
e 225 230
e 32 64
e 63 168
e 49 233
e 16 56
e 183 233
e 21 171
e 40 184
e 155 171
e 53 123
e 72 136
e 58 238
e 144 241
e 56 128
e 9 53
e 102 244
e 135 192
e 93 195
e 220 236
e 32 185
e 137 238
e 90 126
e 2 13
e 62 64
e 7 128
e 26 141
e 53 244
e 172 195
e 213 233
e 111 185
e 23 72
e 9 174
e 83 123
e 28 187
e 102 136
e 88 238
e 146 179
e 5 203
e 13 64
e 32 77
e 49 246
e 123 195
e 16 69
e 2 134
e 21 184
e 117 121
e 7 249
e 81 198
e 208 239
e 120 126
e 53 136
e 39 201
e 144 254
e 6 24
e 37 128
e 23 193
e 56 141
e 83 244
e 9 66
e 14 144
e 55 145
e 74 195
e 129 131
e 8 70
e 27 83
e 32 198
e 16 190
e 90 139
e 76 204
e 150 190
e 2 26
e 48 142
e 34 244
e 134 182
e 194 196
e 6 145
e 4 72
e 9 187
e 83 136
e 124 137
e 215 255
e 27 204
e 44 144
e 85 145
e 30 209
e 145 196
e 164 209
e 2 147
e 136 147
e 39 214
e 6 37
e 4 193
e 18 91
e 78 142
e 36 145
e 201 249
e 242 250
e 8 83
e 27 96
e 118 214
e 200 253
e 16 203
e 24 27
e 115 145
e 15 207
e 48 155
e 194 209
e 1 43
e 6 158
e 18 212
e 4 85
e 45 86
e 64 99
e 124 150
e 69 214
e 17 24
e 36 37
e 8 204
e 27 217
e 25 144
e 66 145
e 11 209
e 30 222
e 145 209
e 24 148
e 43 161
e 84 199
e 230 253
e 101 102
e 1 164
e 18 104
e 4 206
e 45 207
e 64 220
e 17 145
e 91 94
e 36 158
e 96 209
e 99 214
e 112 153
e 24 40
e 43 53
e 84 91
e 175 209
e 1 56
e 54 148
e 73 161
e 18 225
e 133 212
e 152 225
e 45 99
e 17 37
e 3 102
e 8 217
e 94 220
e 149 156
e 168 169
e 167 210
e 24 161
e 84 212
e 63 89
e 1 177
e 128 218
e 161 166
e 40 105
e 45 220
e 205 209
e 64 233
e 31 56
e 17 158
e 75 99
e 121 215
e 19 167
e 10 118
e 156 172
e 216 223
e 54 161
e 40 226
e 26 62
e 72 178
e 130 156
e 75 220
e 94 233
e 42 43
e 47 121
e 52 236
e 167 223
e 19 59
e 5 124
e 65 175
e 170 228
e 211 229
e 63 102
e 49 167
e 128 231
e 21 105
e 40 118
e 12 56
e 53 57
e 3 236
e 144 175
e 56 62
e 223 239
e 121 228
e 14 65
e 19 180
e 5 245
e 5 16
e 46 54
e 32 119
e 63 223
e 65 67
e 49 59
e 35 124
e 21 226
e 68 72
e 40 239
e 109 110
e 155 226
e 174 239
e 26 75
e 72 191
e 158 231
e 70 118
e 56 183
e 130 169
e 42 56
e 74 237
e 93 250
e 41 60
e 5 137
e 132 178
e 32 240
e 65 188
e 151 191
e 44 65
e 192 229
e 35 245
e 21 118
e 62 119
e 7 183
e 81 132
e 86 247
e 34 57
e 53 70
e 144 188
e 185 189
e 37 62
e 56 75
e 9 229
e 28 242
e 14 78
e 146 234
e 206 248
e 32 132
e 63 236
e 51 145
e 178 186
e 197 199
e 16 124
e 21 239
e 136 189
e 81 253
e 241 242
e 7 75
e 48 76
e 34 178
e 53 191
e 139 194
e 6 79
e 56 196
e 4 6
e 9 121
e 41 73
e 27 138
e 113 178
e 32 253
e 25 65
e 151 204
e 192 242
e 233 243
e 30 143
e 16 245
e 104 129
e 2 81
e 7 196
e 48 197
e 81 145
e 122 146
e 15 20
e 166 189
e 111 253
e 226 240
e 4 127
e 245 253
e 9 242
e 124 192
e 143 205
e 229 245
e 36 79
e 96 130
e 146 247
e 8 17
e 27 30
e 104 250
e 145 251
e 71 73
e 16 137
e 2 202
e 76 151
e 62 253
e 29 76
e 48 89
e 180 245
e 6 92
e 4 248
e 92 132
e 4 19
e 69 148
e 22 36
e 8 138
e 27 151
e 154 192
e 85 92
e 30 156
e 2 94
e 84 133
e 29 197
e 103 146
e 48 210
e 134 250
e 175 251
e 1 98
e 20 148
e 106 151
e 6 213
e 92 253
e 18 38
e 4 140
e 64 154
e 105 192
e 124 205
e 17 79
e 36 92
e 8 30
e 85 213
e 11 35
e 57 151
e 2 215
e 43 216
e 84 254
e 184 192
e 203 205
e 161 208
e 73 95
e 18 159
e 133 146
e 152 159
e 205 251
e 17 200
e 36 213
e 3 36
e 22 49
e 8 151
e 214 219
e 11 156
e 24 95
e 84 146
e 1 111
e 87 151
e 73 216
e 6 226
e 147 165
e 207 216
e 45 154
e 64 167
e 17 92
e 3 157
e 168 224
e 80 111
e 66 213
e 33 36
e 38 151
e 24 216
e 203 218
e 15 167
e 1 232
e 161 221
e 54 95
e 73 108
e 18 172
e 59 210
e 119 224
e 58 214
e 3 49
e 75 154
e 94 167
e 195 219
e 47 55
e 88 93
e 214 232
e 24 108
e 65 109
e 10 173
e 115 226
e 68 114
e 54 216
e 128 165
e 73 229
e 21 39
e 188 216
e 40 52
e 100 103
e 12 219
e 45 167
e 3 170
e 130 211
e 42 98
e 80 124
e 88 214
e 121 162
e 162 163
e 33 49
e 24 229
e 65 230
e 32 53
e 63 157
e 1 245
e 21 160
e 54 108
e 40 173
e 114 122
e 53 112
e 72 125
e 144 230
e 177 178
e 56 117
e 42 219
e 75 167
e 9 42
e 176 219
e 195 232
e 5 71
e 65 122
e 49 114
e 54 229
e 21 52
e 7 117
e 26 130
e 72 246
e 232 235
e 130 224
e 190 238
e 102 125
e 47 189
e 162 176
e 60 128
e 5 192
e 146 168
e 65 243
e 13 53
e 151 246
e 32 66
e 63 170
e 51 79
e 49 235
e 104 171
e 123 184
e 225 232
e 21 173
e 7 238
e 40 186
e 81 187
e 7 9
e 141 238
e 227 241
e 53 125
e 72 138
e 144 243
e 56 130
e 102 246
e 160 187
e 201 225
e 5 84
e 46 122
e 32 187
e 16 179
e 49 127
e 35 192
e 90 128
e 2 15
e 169 192
e 62 66
e 7 130
e 48 131
e 34 233
e 134 171
e 53 246
e 37 238
e 56 251
e 171 238
e 9 176
e 231 252
e 28 189
e 41 128
e 113 233
e 5 205
e 16 71
e 2 136
e 7 251
e 81 200
e 120 128
e 139 141
e 6 26
e 37 130
e 23 195
e 97 144
e 157 195
e 14 146
e 129 133
e 201 238
e 8 72
e 27 85
e 32 200
e 219 255
e 71 128
e 16 192
e 35 205
e 76 206
e 2 28
e 48 144
e 194 198
e 6 147
e 111 200
e 152 201
e 4 74
e 212 252
e 23 87
e 9 189
e 64 88
e 124 139
e 196 244
e 8 193
e 127 144
e 27 206
e 187 195
e 44 146
e 38 72
e 250 251
e 2 149
e 122 214
e 249 255
e 6 39
e 4 195
e 18 93
e 78 144
e 64 209
e 138 195
e 17 134
e 36 147
e 55 160
e 8 85
e 27 98
e 118 216
e 11 90
e 30 103
e 131 155
e 76 219
e 24 29
e 29 144
e 15 209
e 194 211
e 1 45
e 73 150
e 6 160
e 18 214
e 152 214
e 64 101
e 91 204
e 124 152
e 17 26
e 3 91
e 36 39
e 108 144
e 8 206
e 94 209
e 27 219
e 66 147
e 11 211
e 126 161
e 145 211
e 24 150
e 98 99
e 84 201
e 103 214
e 1 166
e 106 219
e 18 106
e 4 208
e 45 209
e 59 144
e 64 222
e 12 32
e 100 145
e 31 45
e 17 147
e 119 158
e 3 212
e 36 160
e 77 161
e 182 214
e 121 204
e 57 219
e 24 42
e 15 222
e 156 161
e 1 58
e 54 150
e 73 163
e 18 227
e 133 214
e 174 215
e 45 101
e 86 102
e 91 217
e 3 104
e 130 145
e 75 209
e 94 222
e 168 171
e 107 161
e 167 212
e 19 48
e 24 163
e 65 164
e 10 228
e 84 214
e 98 112
e 63 91
e 101 117
e 1 179
e 87 219
e 128 220
e 142 155
e 147 233
e 40 107
e 45 222
e 12 45
e 58 161
e 3 225
e 163 214
e 22 238
e 204 215
e 121 217
e 33 104
e 52 117
e 98 233
e 63 212
e 51 121
e 137 161
e 101 238
e 216 225
e 54 163
e 40 228
e 114 177
e 7 51
e 26 64
e 193 241
e 72 180
e 177 233
e 70 107
e 130 158
e 42 45
e 47 123
e 33 225
e 88 161
e 52 238
e 167 225
e 60 62
e 65 177
e 63 104
e 104 105
e 49 169
e 128 233
e 21 107
e 40 120
e 81 121
e 53 59
e 204 228
e 56 64
e 47 244
e 181 244
e 146 223
e 5 247
e 79 233
e 165 236
e 5 18
e 46 56
e 32 121
e 63 225
e 82 238
e 49 61
e 21 228
e 95 177
e 40 241
e 81 242
e 7 64
e 34 167
e 67 115
e 53 180
e 72 193
e 158 233
e 199 234
e 218 247
e 111 121
e 56 185
e 171 172
e 9 110
e 47 136
e 148 188
e 93 252
e 5 139
e 132 180
e 32 242
e 151 193
e 192 231
e 49 182
e 109 233
e 150 234
e 2 70
e 62 121
e 7 185
e 81 134
e 20 124
e 53 72
e 144 190
e 185 191
e 37 64
e 226 229
e 56 77
e 9 231
e 102 193
e 55 81
e 13 121
e 32 134
e 44 188
e 238 239
e 16 126
e 21 241
e 76 140
e 81 255
e 29 65
e 241 244
e 48 78
e 53 193
e 199 247
e 6 81
e 92 121
e 111 134
e 56 198
e 4 8
e 171 185
e 9 123
e 50 124
e 27 140
e 32 255
e 192 244
e 233 245
e 44 80
e 30 145
e 16 247
e 2 83
e 48 199
e 122 148
e 194 253
e 6 202
e 111 255
e 18 27
e 4 129
e 59 65
e 226 242
e 9 244
e 83 193
e 124 194
e 143 207
e 229 247
e 36 81
e 96 132
e 8 19
e 187 250
e 27 32
e 145 253
e 16 139
e 2 204
e 15 143
e 48 91
e 139 209
e 6 94
e 4 250
e 18 148
e 133 135
e 4 21
e 36 202
e 110 151
e 22 38
e 8 140
e 27 153
e 25 80
e 66 81
e 11 145
e 30 158
e 131 210
e 24 84
e 84 135
e 48 212
e 122 161
e 1 100
e 87 140
e 6 215
e 92 255
e 18 40
e 4 142
e 45 143
e 78 91
e 64 156
e 124 207
e 17 81
e 36 94
e 77 95
e 140 151
e 85 215
e 200 202
e 2 217
e 203 207
e 1 221
e 161 210
e 54 84
e 73 97
e 18 161
e 133 148
e 152 161
e 205 253
e 17 202
e 91 151
e 36 215
e 196 204
e 3 38
e 8 153
e 195 208
e 214 221
e 24 97
e 84 148
e 1 113
e 128 154
e 147 167
e 40 41
e 207 218
e 45 156
e 31 221
e 64 169
e 17 94
e 3 159
e 149 213
e 121 151
e 140 164
e 33 38
e 24 218
e 98 167
e 10 54
e 1 234
e 161 223
e 54 97
e 40 162
e 73 110
e 17 215
e 58 216
e 72 114
e 135 170
e 195 221
e 88 95
e 214 234
e 107 108
e 198 226
e 5 60
e 65 111
e 137 216
e 156 229
e 49 103
e 68 116
e 54 218
e 128 167
e 21 41
e 40 54
e 12 221
e 3 172
e 130 213
e 88 216
e 162 165
e 5 181
e 24 231
e 65 232
e 79 167
e 32 55
e 63 159
e 123 173
e 95 111
e 40 175
e 114 124
e 53 114
e 72 127
e 158 167
e 144 232
e 177 180
e 56 119
e 9 44
e 80 247
e 179 226
e 220 227
e 5 73
e 46 111
e 32 176
e 65 124
e 197 243
e 49 116
e 109 167
e 21 54
e 7 119
e 67 170
e 53 235
e 213 224
e 72 248
e 232 237
e 70 175
e 56 240
e 130 226
e 171 227
e 9 165
e 47 191
e 60 130
e 5 194
e 146 170
e 65 245
e 151 248
e 165 183
e 32 68
e 44 122
e 51 81
e 63 172
e 16 60
e 35 73
e 21 175
e 95 124
e 7 240
e 81 189
e 7 11
e 227 243
e 53 127
e 39 192
e 144 245
e 6 15
e 56 132
e 42 234
e 116 183
e 9 57
e 50 58
e 69 71
e 19 250
e 27 74
e 113 114
e 239 253
e 32 189
e 118 192
e 159 230
e 178 243
e 30 79
e 16 181
e 90 130
e 2 17
e 7 132
e 48 133
e 53 248
e 213 237
e 39 84
e 56 253
e 4 63
e 9 178
e 124 128
e 69 192
e 41 130
e 27 195
e 132 248
e 13 68
e 30 200
e 49 250
e 90 251
e 145 187
e 16 73
e 2 138
e 76 87
e 117 125
e 7 253
e 48 254
e 81 202
e 136 138
e 120 130
e 20 192
e 139 143
e 180 181
e 6 28
e 4 184
e 37 132
e 97 146
e 36 136
e 69 84
e 96 187
e 8 74
e 27 87
e 99 192
e 71 130
e 16 194
e 57 195
e 131 144
e 2 30
e 48 146
e 1 34
e 6 149
e 37 253
e 4 76
e 64 90
e 50 192
e 105 128
e 124 141
e 143 154
e 108 133
e 8 195
e 127 146
e 27 208
e 11 200
e 85 149
e 145 200
e 2 151
e 76 100
e 84 190
e 122 216
e 18 95
e 4 197
e 78 146
e 64 211
e 17 136
e 36 149
e 22 214
e 108 254
e 8 87
e 38 195
e 112 144
e 57 208
e 184 249
e 76 221
e 24 31
e 43 44
e 29 146
e 1 47
e 73 152
e 18 216
e 152 216
e 193 217
e 45 90
e 64 103
e 17 28
e 110 219
e 3 93
e 22 106
e 8 208
e 108 146
e 52 214
e 167 201
e 186 214
e 24 152
e 98 101
e 84 203
e 103 216
e 189 219
e 142 144
e 1 168
e 18 108
e 59 146
e 45 211
e 64 224
e 31 47
e 17 149
e 3 214
e 77 163
e 182 216
e 75 90
e 121 206
e 140 219
e 33 93
e 79 209
e 24 44
e 82 214
e 115 162
e 156 163
e 73 165
e 18 229
e 133 216
e 26 53
e 12 155
e 45 103
e 91 219
e 3 106
e 130 147
e 149 160
e 168 173
e 209 211
e 33 214
e 107 163
e 167 214
e 24 165
e 65 166
e 170 219
e 63 93
e 82 106
e 101 119
e 1 181
e 109 209
e 128 222
e 21 96
e 40 109
e 45 224
e 141 161
e 3 227
e 144 166
e 163 216
e 204 217
e 47 233
e 121 219
e 181 233
e 79 222
e 5 7
e 63 214
e 51 123
e 49 50
e 216 227
e 21 217
e 54 165
e 40 230
e 7 53
e 174 230
e 72 182
e 158 222
e 218 236
e 130 160
e 135 238
e 107 176
e 19 63
e 60 64
e 5 128
e 65 179
e 151 182
e 192 220
e 211 233
e 63 106
e 104 107
e 49 171
e 128 235
e 21 109
e 7 174
e 40 122
e 26 187
e 81 123
e 86 238
e 34 48
e 53 61
e 72 74
e 125 166
e 37 53
e 56 66
e 42 168
e 116 117
e 28 233
e 162 233
e 93 133
e 5 249
e 146 225
e 165 238
e 32 123
e 63 227
e 16 115
e 49 63
e 35 128
e 21 230
e 40 243
e 81 244
e 7 66
e 48 67
e 72 195
e 56 187
e 171 174
e 116 238
e 9 112
e 160 244
e 41 64
e 113 169
e 5 141
e 32 244
e 25 56
e 151 195
e 192 233
e 104 120
e 16 236
e 49 184
e 2 72
e 7 187
e 81 136
e 226 231
e 9 233
e 102 195
e 229 236
e 248 249
e 96 121
e 41 185
e 146 238
e 187 239
e 32 136
e 44 190
e 11 13
e 238 241
e 16 128
e 2 193
e 136 193
e 241 246
e 48 80
e 6 83
e 56 200
e 4 10
e 9 125
e 96 242
e 129 190
e 8 129
e 27 142
e 132 195
e 233 247
e 16 249
e 217 239
e 236 252
e 2 85
e 29 188
e 103 137
e 48 201
e 15 24
e 6 204
e 18 29
e 4 131
e 23 144
e 9 246
e 64 145
e 124 196
e 17 70
e 143 209
e 36 83
e 8 250
e 8 21
e 25 190
e 11 26
e 145 255
e 38 129
e 2 206
e 15 145
e 161 199
e 73 86
e 6 96
e 4 252
e 18 150
e 97 214
e 36 204
e 55 217
e 3 27
e 22 40
e 8 142
e 94 145
e 27 155
e 173 209
e 66 83
e 85 96
e 24 86
e 43 99
e 84 137
e 48 214
e 1 102
e 6 217
e 18 42
e 4 144
e 45 145
e 64 158
e 124 209
e 210 212
e 17 83
e 3 148
e 36 96
e 22 161
e 127 214
e 209 253
e 80 102
e 140 153
e 200 204
e 24 207
e 184 196
e 203 209
e 15 158
e 101 161
e 1 223
e 142 199
e 161 212
e 54 86
e 73 99
e 18 163
e 31 102
e 17 204
e 36 217
e 77 218
e 3 40
e 22 53
e 75 145
e 94 158
e 154 209
e 195 210
e 214 223
e 52 161
e 198 215
e 24 99
e 65 100
e 84 150
e 68 105
e 1 115
e 54 207
e 73 220
e 128 156
e 40 43
e 45 158
e 31 223
e 3 161
e 130 202
e 121 153
e 33 40
e 24 220
e 43 233
e 10 56
e 63 148
e 82 161
e 1 236
e 202 226
e 54 99
e 40 164
e 17 217
e 72 116
e 195 223
e 33 161
e 107 110
e 5 62
e 65 113
e 49 105
e 54 220
e 128 169
e 73 233
e 21 43
e 169 170
e 7 108
e 40 56
e 26 121
e 172 175
e 72 237
e 58 110
e 130 215
e 28 167
e 102 116
e 88 218
e 162 167
e 146 159
e 5 183
e 165 172
e 65 234
e 32 57
e 63 161
e 49 226
e 21 164
e 40 177
e 81 178
e 155 164
e 53 116
e 72 129
e 144 234
e 37 108
e 56 121
e 116 172
e 61 236
e 9 46
e 14 124
e 47 72
e 88 110
e 5 75
e 32 178
e 197 245
e 49 118
e 90 119
e 2 6
e 7 121
e 153 175
e 53 237
e 172 188
e 72 250
e 20 60
e 232 239
e 39 73
e 56 242
e 23 65
e 9 167
e 47 193
e 14 16
e 146 172
e 5 196
e 65 247
e 151 250
e 32 70
e 44 124
e 49 239
e 16 62
e 21 177
e 7 242
e 81 191
e 208 232
e 20 181
e 53 129
e 125 234
e 144 247
e 6 17
e 37 121
e 185 248
e 56 134
e 9 59
e 69 73
e 27 76
e 113 116
e 32 191
e 30 81
e 16 183
e 71 119
e 2 19
e 53 250
e 20 73
e 6 138
e 92 178
e 56 255
e 4 65
e 9 180
e 124 130
e 27 197
e 25 124
e 104 188
e 145 189
e 90 253
e 16 75
e 2 140
e 76 89
e 7 255
e 103 192
e 136 140
e 15 79
e 20 194
e 139 145
e 180 183
e 6 30
e 4 186
e 18 84
e 59 122
e 138 186
e 124 251
e 50 73
e 36 138
e 55 151
e 96 189
e 242 243
e 8 76
e 27 89
e 99 194
e 11 81
e 30 94
e 16 196
e 71 132
e 131 146
e 48 148
e 34 250
e 175 189
e 194 202
e 1 36
e 6 151
e 18 205
e 133 192
e 4 78
e 64 92
e 105 130
e 124 143
e 22 95
e 8 197
e 27 210
e 187 199
e 25 137
e 85 151
e 145 202
e 84 192
e 230 246
e 1 157
e 87 197
e 18 97
e 4 199
e 45 200
e 64 213
e 105 251
e 31 36
e 17 138
e 36 151
e 163 192
e 22 216
e 75 79
e 8 89
e 112 146
e 24 33
e 115 151
e 101 216
e 1 49
e 54 141
e 18 218
e 133 205
e 193 219
e 45 92
e 31 157
e 64 105
e 17 30
e 3 95
e 8 210
e 66 151
e 52 216
e 126 165
e 167 203
e 79 90
e 24 154
e 98 103
e 43 167
e 84 205
e 189 221
e 142 146
e 1 170
e 128 211
e 40 98
e 45 213
e 64 226
e 12 36
e 31 49
e 17 151
e 3 216
e 121 208
e 140 221
e 93 109
e 98 224
e 137 152
e 82 216
e 101 229
e 54 154
e 40 219
e 73 167
e 174 219
e 26 55
e 12 157
e 177 224
e 70 98
e 3 108
e 89 111
e 130 149
e 209 213
e 88 152
e 33 216
e 52 229
e 167 216
e 5 117
e 79 103
e 65 168
e 63 95
e 68 173
e 128 224
e 21 98
e 40 111
e 67 214
e 12 49
e 70 219
e 3 229
e 144 168
e 204 219
e 61 170
e 121 221
e 162 222
e 5 9
e 46 47
e 32 112
e 63 216
e 49 52
e 21 219
e 40 232
e 155 219
e 7 55
e 53 171
e 72 184
e 218 238
e 56 176
e 89 124
e 116 227
e 130 162
e 42 49
e 41 53
e 5 130
e 32 233
e 65 181
e 151 184
e 192 222
e 63 108
e 104 109
e 49 173
e 211 235
e 169 238
e 21 111
e 7 176
e 81 125
e 26 189
e 34 50
e 53 63
e 39 128
e 144 181
e 37 55
e 204 232
e 56 68
e 9 222
e 42 170
e 162 235
e 14 71
e 74 122
e 146 227
e 5 251
e 206 241
e 32 125
e 63 229
e 118 128
e 178 179
e 16 117
e 35 130
e 21 232
e 62 233
e 81 246
e 7 68
e 48 69
e 53 184
e 139 187
e 72 197
e 199 238
e 6 72
e 111 125
e 56 189
e 171 176
e 9 114
e 69 128
e 14 192
e 148 192
e 27 131
e 13 233
e 32 246
e 192 235
e 233 236
e 104 122
e 16 238
e 35 251
e 150 238
e 2 74
e 7 189
e 48 190
e 81 138
e 34 63
e 20 128
e 92 233
e 166 182
e 185 195
e 4 120
e 226 233
e 23 133
e 9 235
e 245 246
e 143 198
e 229 238
e 36 72
e 248 251
e 96 123
e 41 187
e 146 240
e 8 10
e 206 254
e 99 128
e 44 192
e 11 15
e 145 244
e 178 192
e 16 130
e 2 195
e 76 144
e 117 182
e 136 195
e 48 82
e 120 187
e 180 238
e 6 85
e 23 254
e 4 12
e 50 128
e 14 205
e 8 131
e 27 144
e 66 72
e 233 249
e 16 251
e 90 200
e 217 241
e 236 254
e 2 87
e 84 126
e 48 203
e 15 26
e 106 144
e 6 206
e 166 195
e 18 31
e 4 133
e 23 146
e 64 147
e 124 198
e 17 72
e 36 85
e 22 150
e 8 252
e 8 23
e 228 255
e 25 192
e 99 141
e 140 142
e 57 144
e 2 208
e 43 209
e 76 157
e 84 247
e 117 195
e 184 185
e 161 201
e 73 88
e 18 152
e 4 254
e 17 193
e 36 206
e 55 219
e 8 144
e 131 214
e 24 88
e 84 139
e 29 203
e 15 39
e 1 104
e 87 144
e 73 209
e 6 219
e 207 209
e 18 44
e 45 147
e 64 160
e 210 214
e 251 252
e 3 150
e 108 203
e 209 255
e 80 104
e 121 142
e 85 219
e 200 206
e 38 144
e 79 145
e 24 209
e 10 45
e 1 225
e 161 214
e 54 88
e 73 101
e 18 165
e 17 206
e 91 155
e 36 219
e 77 220
e 3 42
e 135 161
e 195 212
e 47 48
e 214 225
e 52 163
e 112 214
e 24 101
e 65 102
e 115 219
e 156 220
e 109 145
e 54 209
e 128 158
e 73 222
e 21 32
e 147 171
e 40 45
e 188 209
e 12 212
e 45 160
e 31 225
e 86 161
e 191 214
e 3 163
e 130 204
e 121 155
e 66 219
e 126 233
e 79 158
e 24 222
e 65 223
e 10 58
e 51 59
e 63 150
e 142 214
e 1 238
e 21 153
e 54 101
e 40 166
e 114 115
e 119 230
e 53 105
e 72 118
e 77 233
e 116 161
e 80 238
e 28 48
e 195 225
e 33 163
e 74 164
e 107 112
e 198 230
e 5 64
e 46 102
e 65 115
e 156 233
e 49 107
e 54 222
e 95 223
e 128 171
e 21 45
e 169 172
e 7 110
e 40 58
e 67 161
e 31 238
e 72 239
e 213 215
e 130 217
e 102 118
e 107 233
e 181 182
e 60 121
e 5 185
e 146 161
e 65 236
e 151 239
e 32 59
e 63 163
e 51 72
e 49 228
e 16 51
e 35 64
e 7 231
e 40 179
e 26 244
e 81 180
e 53 118
e 39 183
e 58 233
e 72 131
e 144 236
e 158 171
e 56 123
e 61 238
e 9 48
e 239 244
e 5 77
e 13 167
e 32 180
e 137 233
e 16 172
e 49 120
e 90 121
e 2 8
e 169 185
e 7 123
e 34 226
e 153 177
e 53 239
e 172 190
e 72 252
e 213 228
e 111 180
e 56 244
e 23 67
e 9 169
e 231 245
e 88 233
e 14 18
e 41 121
e 146 174
e 5 198
e 13 59
e 151 252
e 32 72
e 49 241
e 164 191
e 16 64
e 2 129
e 76 78
e 7 244
e 81 193
e 34 118
e 120 121
e 125 236
e 6 19
e 78 124
e 9 61
e 41 242
e 60 255
e 8 65
e 220 244
e 27 78
e 113 118
e 32 193
e 44 247
e 71 121
e 16 185
e 2 250
e 131 135
e 2 21
e 29 124
e 53 252
e 6 140
e 37 244
e 4 67
e 9 182
e 64 81
e 124 132
e 143 145
e 215 250
e 108 124
e 8 186
e 27 199
e 187 188
e 44 139
e 145 191
e 38 65
e 2 142
e 15 81
e 6 32
e 4 188
e 18 86
e 59 124
e 64 202
e 138 188
e 124 253
e 50 75
e 36 140
e 41 255
e 242 245
e 8 78
e 27 91
e 25 247
e 99 196
e 118 209
e 200 248
e 203 253
e 175 191
e 1 38
e 6 153
e 18 207
e 4 80
e 45 81
e 64 94
e 124 145
e 17 19
e 3 84
e 8 199
e 127 150
e 27 212
e 145 204
e 24 143
e 84 194
e 15 94
e 1 159
e 87 199
e 18 99
e 4 201
e 45 202
e 100 138
e 64 215
e 12 25
e 119 151
e 17 140
e 3 205
e 36 153
e 182 207
e 75 81
e 121 197
e 33 84
e 24 35
e 15 215
e 1 51
e 54 143
e 73 156
e 18 220
e 45 94
e 86 95
e 31 159
e 3 97
e 130 138
e 149 151
e 66 153
e 52 218
e 126 167
e 167 205
e 24 156
e 43 169
e 84 207
e 63 84
e 1 172
e 128 213
e 40 100
e 100 151
e 45 215
e 86 216
e 77 167
e 75 94
e 121 210
e 33 97
e 98 226
e 63 205
e 51 114
e 156 167
e 101 231
e 216 218
e 54 156
e 40 221
e 114 170
e 7 44
e 72 173
e 89 113
e 130 151
e 116 216
e 149 164
e 107 167
e 167 218
e 19 54
e 5 119
e 65 170
e 63 97
e 49 162
e 128 226
e 21 100
e 40 113
e 81 114
e 67 216
e 141 165
e 34 39
e 58 167
e 144 170
e 37 44
e 204 221
e 56 57
e 61 172
e 93 124
e 5 240
e 146 216
e 165 229
e 5 11
e 46 49
e 32 114
e 63 218
e 137 167
e 49 54
e 35 119
e 21 221
e 40 234
e 53 173
e 72 186
e 158 226
e 199 227
e 56 178
e 116 229
e 9 103
e 88 167
e 5 132
e 32 235
e 65 183
e 151 186
e 44 60
e 192 224
e 104 111
e 49 175
e 123 124
e 2 63
e 21 113
e 7 178
e 81 127
e 141 178
e 53 65
e 39 130
e 144 183
e 56 70
e 9 224
e 14 73
e 74 124
e 146 229
e 5 253
e 32 127
e 118 130
e 104 232
e 178 181
e 16 119
e 35 132
e 21 234
e 136 184
e 81 248
e 48 71
e 53 186
e 139 189
e 6 74
e 111 127
e 56 191
e 97 192
e 9 116
e 69 130
e 27 133
e 32 248
e 192 237
e 233 238
e 44 73
e 104 124
e 16 240
e 2 76
e 62 127
e 7 191
e 48 192
e 103 128
e 20 130
e 6 195
e 111 248
e 18 20
e 4 122
e 185 197
e 23 135
e 9 237
e 83 186
e 124 187
e 226 235
e 229 240
e 36 74
e 248 253
e 127 192
e 27 254
e 8 12
e 187 243
e 99 130
e 44 194
e 11 17
e 145 246
e 16 132
e 2 197
e 76 146
e 48 84
e 6 87
e 4 243
e 18 141
e 78 192
e 4 14
e 138 243
e 50 130
e 36 195
e 110 144
e 22 31
e 8 133
e 27 146
e 25 73
e 66 74
e 233 251
e 85 87
e 30 151
e 16 253
e 131 203
e 24 77
e 84 128
e 29 192
e 48 205
e 1 93
e 106 146
e 6 208
e 133 249
e 18 33
e 4 135
e 45 136
e 59 71
e 64 149
e 78 84
e 124 200
e 17 74
e 36 87
e 77 88
e 108 192
e 8 254
e 25 194
e 66 195
e 140 144
e 11 30
e 57 146
e 2 210
e 84 249
e 184 187
e 10 34
e 1 214
e 161 203
e 54 77
e 73 90
e 18 154
e 59 192
e 133 141
e 152 154
e 17 195
e 91 144
e 36 208
e 196 197
e 3 31
e 75 136
e 8 146
e 66 87
e 11 151
e 38 254
e 131 216
e 24 90
e 10 155
e 84 141
e 1 106
e 87 146
e 128 147
e 45 149
e 31 214
e 64 162
e 105 200
e 210 216
e 17 87
e 251 254
e 3 152
e 77 101
e 108 205
e 168 219
e 121 144
e 66 208
e 140 157
e 38 146
e 101 165
e 1 227
e 161 216
e 54 90
e 40 155
e 73 103
e 119 219
e 12 93
e 17 208
e 58 209
e 3 44
e 61 214
e 135 163
e 176 201
e 195 214
e 214 227
e 52 165
e 112 216
e 198 219
e 5 53
e 65 104
e 49 96
e 54 211
e 128 160
e 73 224
e 21 34
e 40 47
e 12 214
e 191 216
e 3 165
e 130 206
e 149 219
e 168 232
e 88 209
e 121 157
e 65 225
e 32 48
e 63 152
e 35 53
e 21 155
e 40 168
e 114 117
e 26 233
e 100 219
e 141 220
e 53 107
e 72 120
e 144 225
e 56 112
e 42 214
e 9 37
e 176 214
e 47 63
e 93 179
e 179 219
e 5 66
e 32 169
e 65 117
e 49 109
e 54 224
e 150 161
e 169 174
e 21 47
e 114 238
e 7 112
e 153 166
e 53 228
e 72 241
e 39 64
e 70 168
e 56 233
e 130 219
e 190 233
e 9 158
e 42 106
e 83 107
e 47 184
e 162 171
e 107 235
e 146 163
e 5 187
e 165 176
e 65 238
e 13 48
e 151 241
e 32 61
e 63 165
e 51 74
e 49 230
e 16 53
e 183 230
e 21 168
e 62 169
e 7 233
e 81 182
e 141 233
e 34 107
e 144 238
e 6 8
e 56 125
e 9 50
e 102 241
e 28 63
e 14 128
e 201 220
e 220 233
e 27 67
e 32 182
e 51 195
e 30 72
e 16 174
e 150 174
e 95 238
e 2 10
e 169 187
e 7 125
e 48 126
e 134 166
e 53 241
e 172 192
e 72 254
e 20 64
e 37 233
e 4 56
e 171 233
e 190 246
e 9 171
e 231 247
e 27 188
e 46 238
e 146 176
e 13 61
e 151 254
e 44 128
e 104 179
e 49 243
e 145 180
e 16 66
e 2 131
e 117 118
e 7 246
e 48 247
e 81 195
e 120 123
e 125 238
e 166 239
e 6 21
e 4 177
e 78 126
e 50 64
e 69 77
e 160 195
e 201 233
e 8 67
e 27 80
e 113 120
e 11 72
e 219 250
e 16 187
e 2 252
e 2 23
e 48 139
e 134 179
e 175 180
e 1 27
e 6 142
e 111 195
e 4 69
e 64 83
e 105 121
e 124 134
e 22 86
e 8 188
e 108 126
e 27 201
e 113 241
e 187 190
e 25 128
e 44 141
e 85 142
e 145 193
e 2 144
e 43 145
e 76 93
e 84 183
e 122 209
e 249 250
e 18 88
e 4 190
e 64 204
e 124 255
e 17 129
e 36 142
e 96 193
e 242 247
e 8 80
e 131 150
e 76 214
e 15 204
e 1 40
e 73 145
e 6 155
e 18 209
e 133 196
e 152 209
e 45 83
e 64 96
e 17 250
e 17 21
e 196 252
e 3 86
e 8 201
e 94 204
e 167 194
e 79 81
e 24 145
e 84 196
e 103 209
e 82 86
e 1 161
e 106 214
e 188 253
e 18 101
e 45 204
e 119 153
e 64 217
e 12 27
e 31 40
e 17 142
e 3 207
e 36 155
e 77 156
e 182 209
e 75 83
e 80 161
e 121 199
e 24 37
e 15 217
e 54 145
e 73 158
e 18 222
e 133 209
e 174 210
e 45 96
e 31 161
e 3 99
e 89 102
e 130 140
e 33 207
e 167 207
e 19 43
e 79 94
e 24 158
e 98 107
e 63 86
e 82 99
e 109 202
e 1 174
e 128 215
e 142 150
e 21 89
e 40 102
e 45 217
e 12 40
e 163 209
e 22 233
e 61 161
e 121 212
e 10 115
e 63 207
e 137 156
e 156 169
e 101 233
e 216 220
e 54 158
e 95 159
e 40 223
e 155 210
e 7 46
e 12 161
e 86 110
e 72 175
e 158 215
e 218 229
e 70 102
e 130 153
e 74 221
e 19 56
e 5 121
e 65 172
e 151 175
e 192 213
e 211 226
e 63 99
e 49 164
e 128 228
e 21 102
e 7 167
e 40 115
e 81 116
e 141 167
e 53 54
e 144 172
e 56 59
e 42 161
e 47 239
e 162 226
e 146 218
e 5 242
e 5 13
e 32 116
e 63 220
e 137 169
e 123 234
e 16 108
e 49 56
e 35 121
e 21 223
e 40 236
e 81 237
e 7 59
e 48 60
e 34 162
e 53 175
e 72 188
e 218 242
e 37 167
e 70 115
e 56 180
e 111 116
e 9 105
e 41 57
e 5 134
e 46 172
e 32 237
e 25 49
e 151 188
e 44 62
e 192 226
e 49 177
e 35 242
e 2 65
e 7 180
e 81 129
e 26 193
e 122 130
e 34 54
e 125 172
e 111 237
e 185 186
e 23 124
e 9 226
e 96 114
e 146 231
e 5 255
e 13 116
e 32 129
e 159 170
e 104 234
e 178 183
e 16 121
e 2 186
e 117 173
e 81 250
e 48 73
e 53 188
e 180 229
e 199 242
e 240 243
e 6 76
e 37 180
e 92 116
e 111 129
e 129 183
e 8 122
e 27 135
e 132 188
e 32 250
e 173 189
e 233 240
e 252 253
e 30 140
e 16 242
e 217 232
e 2 78
e 103 130
e 48 194
e 15 17
e 20 132
e 6 197
e 18 22
e 4 124
e 59 60
e 9 239
e 64 138
e 124 189
e 17 63
e 36 76
e 8 14
e 85 197
e 159 183
e 145 248
e 30 32
e 2 199
e 76 148
e 29 73
e 20 253
e 73 79
e 6 89
e 4 245
e 18 143
e 4 16
e 36 197
e 3 20
e 8 135
e 27 148
e 233 253
e 16 255
e 112 192
e 24 79
e 84 130
e 48 207
e 15 30
e 1 95
e 6 210
e 147 149
e 18 35
e 4 137
e 45 138
e 59 73
e 64 151
e 124 202
e 17 76
e 3 141
e 36 89
e 209 246
e 121 133
e 140 146
e 38 135
e 24 200
e 184 189
e 84 251
e 10 36
e 15 151
e 142 192
e 1 216
e 161 205
e 54 79
e 73 92
e 18 156
e 119 208
e 205 248
e 31 95
e 17 197
e 91 146
e 36 210
e 3 33
e 22 46
e 94 151
e 80 216
e 121 254
e 195 203
e 214 216
e 66 89
e 24 92
e 10 157
e 84 143
e 115 210
e 1 108
e 54 200
e 73 213
e 128 149
e 147 162
e 45 151
e 31 216
e 210 218
e 3 154
e 22 167
e 121 146
e 66 210
e 24 213
e 98 162
e 10 49
e 63 141
e 101 167
e 1 229
e 161 218
e 202 219
e 54 92
e 40 157
e 17 210
e 58 211
e 72 109
e 75 151
e 61 216
e 195 216
e 47 52
e 88 90
e 214 229
e 19 219
e 52 167
e 198 221
e 5 55
e 65 106
e 156 224
e 49 98
e 54 213
e 128 162
e 73 226
e 21 36
e 114 227
e 40 49
e 67 152
e 12 216
e 72 230
e 70 157
e 130 208
e 149 221
e 61 108
e 47 173
e 19 111
e 146 152
e 5 176
e 46 214
e 65 227
e 32 50
e 63 154
e 51 63
e 49 219
e 82 167
e 183 219
e 21 157
e 95 106
e 40 170
e 81 171
e 114 119
e 155 157
e 72 122
e 144 227
e 56 114
e 42 216
e 116 165
e 61 229
e 9 39
e 102 230
e 28 52
e 176 216
e 47 65
e 88 103
e 220 222
e 5 68
e 32 171
e 197 238
e 49 111
e 68 124
e 150 163
e 21 49
e 114 240
e 7 114
e 12 229
e 53 230
e 153 168
e 72 243
e 20 53
e 213 219
e 56 235
e 130 221
e 9 160
e 14 238
e 148 238
e 60 125
e 5 189
e 146 165
e 65 240
e 13 50
e 151 243
e 32 63
e 104 168
e 49 232
e 16 55
e 21 170
e 81 184
e 53 122
e 144 240
e 6 10
e 185 241
e 56 127
e 97 128
e 9 52
e 50 53
e 14 130
e 41 233
e 160 184
e 27 69
e 32 184
e 44 238
e 178 238
e 30 74
e 2 12
e 136 241
e 62 63
e 7 127
e 48 128
e 53 243
e 6 131
e 56 248
e 4 58
e 171 235
e 212 236
e 9 173
e 129 238
e 41 125
e 127 128
e 27 190
e 132 243
e 13 63
e 44 130
e 30 195
e 71 233
e 164 195
e 16 68
e 57 69
e 2 133
e 7 248
e 48 249
e 208 238
e 15 72
e 6 252
e 6 23
e 4 179
e 18 77
e 23 192
e 78 128
e 124 244
e 157 192
e 36 131
e 55 144
e 96 182
e 8 69
e 27 82
e 25 238
e 99 187
e 11 74
e 178 251
e 30 87
e 16 189
e 219 252
e 2 254
e 131 139
e 29 128
e 48 141
e 34 243
e 194 195
e 1 29
e 6 144
e 4 71
e 45 72
e 212 249
e 64 85
e 105 123
e 124 136
e 36 252
e 110 201
e 196 241
e 108 128
e 8 190
e 27 203
e 113 243
e 187 192
e 25 130
e 11 195
e 85 144
e 145 195
e 2 146
e 84 185
e 103 198
e 249 252
e 1 150
e 87 190
e 106 203
e 207 255
e 18 90
e 4 192
e 45 193
e 59 128
e 64 206
e 78 141
e 17 131
e 36 144
e 96 195
e 8 82
e 131 152
e 24 26
e 10 91
e 29 141
e 115 144
e 175 195
e 1 42
e 18 211
e 193 212
e 45 85
e 64 98
e 17 252
e 91 201
e 17 23
e 110 214
e 3 88
e 237 255
e 8 203
e 94 206
e 66 144
e 11 208
e 52 209
e 167 196
e 19 32
e 186 209
e 24 147
e 84 198
e 189 214
e 1 163
e 128 204
e 40 91
e 45 206
e 64 219
e 12 29
e 31 42
e 17 144
e 58 145
e 3 209
e 91 93
e 121 201
e 140 214
e 33 88
e 52 101
e 82 209
e 156 158
e 54 147
e 73 160
e 18 224
e 114 161
e 26 48
e 67 86
e 86 99
e 193 225
e 91 214
e 3 101
e 89 104
e 130 142
e 94 219
e 88 145
e 33 209
e 167 209
e 19 45
e 5 110
e 24 160
e 65 161
e 170 214
e 211 215
e 63 88
e 109 204
e 128 217
e 21 91
e 40 104
e 141 156
e 3 222
e 144 161
e 204 212
e 121 214
e 181 228
e 165 220
e 32 105
e 63 209
e 21 212
e 54 160
e 40 225
e 95 161
e 7 48
e 67 99
e 53 164
e 72 177
e 56 169
e 130 155
e 9 94
e 135 233
e 107 171
e 148 172
e 41 46
e 46 161
e 65 174
e 10 238
e 151 177
e 192 215
e 63 101
e 49 166
e 21 104
e 7 169
e 81 118
e 141 169
e 86 233
e 34 43
e 172 236
e 53 56
e 39 121
e 70 225
e 125 161
e 89 238
e 37 48
e 144 174
e 56 61
e 204 225
e 14 64
e 146 220
e 5 244
e 165 233
e 206 234
e 32 118
e 63 222
e 118 121
e 123 236
e 16 110
e 21 225
e 40 238
e 81 239
e 53 177
e 139 180
e 72 190
e 199 231
e 92 105
e 56 182
e 116 233
e 9 107
e 69 121
e 129 172
e 148 185
e 41 59
e 27 124
e 46 174
e 60 72
e 32 239
e 132 177
e 151 190
e 44 64
e 192 228
e 104 115
e 16 231
e 49 179
e 90 180
e 2 67
e 62 118
e 7 182
e 81 131
e 34 56
e 20 121
e 39 134
e 166 175
e 111 239
e 185 188
e 4 113
e 37 61
e 9 228
e 102 190
e 143 191
e 229 231
e 55 78
e 146 233
e 187 234
e 99 121
e 145 237
e 16 123
e 57 124
e 2 188
e 62 239
e 48 75
e 39 255
e 240 245
e 6 78
e 4 5
e 243 250
e 50 121
e 69 134
e 110 135
e 8 124
e 27 137
e 113 177
e 99 242
e 32 252
e 25 64
e 233 242
e 252 255
e 30 142
e 16 244
e 131 194
e 236 247
e 2 80
e 43 81
e 84 119
e 48 196
e 122 145
e 194 250
e 87 124
e 20 134
e 6 199
e 18 24
e 4 126
e 59 62
e 64 140
e 50 242
e 105 178
e 124 191
e 17 65
e 229 244
e 36 78
e 108 183
e 8 245
e 8 16
e 85 199
e 11 21
e 145 250
e 38 124
e 2 201
e 161 194
e 221 245
e 73 81
e 6 91
e 4 247
e 18 145
e 205 237
e 97 209
e 17 186
e 36 199
e 3 22
e 22 35
e 8 137
e 66 78
e 24 81
e 84 132
e 103 145
e 15 32
e 1 97
e 73 202
e 6 212
e 147 151
e 188 189
e 18 37
e 45 140
e 64 153
e 105 191
e 124 204
e 17 78
e 3 143
e 77 92
e 80 97
e 121 135
e 140 148
e 167 251
e 24 202
e 184 191
e 84 253
e 203 204
e 1 218
e 161 207
e 54 81
e 73 94
e 18 158
e 100 197
e 133 145
e 12 84
e 17 199
e 36 212
e 3 35
e 195 205
e 214 218
e 24 94
e 65 95
e 115 212
e 156 213
e 68 100
e 1 110
e 54 202
e 73 215
e 21 25
e 128 151
e 207 215
e 45 153
e 3 156
e 77 105
e 130 197
e 42 84
e 121 148
e 33 35
e 79 151
e 24 215
e 65 216
e 63 143
e 51 52
e 142 207
e 1 231
e 21 146
e 54 94
e 40 159
e 72 111
e 116 154
e 135 167
e 28 41
e 195 218
e 47 54
e 88 92
e 5 57
e 65 108
e 49 100
e 68 113
e 54 215
e 95 216
e 109 151
e 21 38
e 114 229
e 7 103
e 40 51
e 128 164
e 12 218
e 86 167
e 72 232
e 39 55
e 130 210
e 102 111
e 47 175
e 146 154
e 5 178
e 46 216
e 65 229
e 151 232
e 165 167
e 32 52
e 63 156
e 51 65
e 49 221
e 123 170
e 16 44
e 202 234
e 21 159
e 7 224
e 40 172
e 155 159
e 34 98
e 53 111
e 72 124
e 58 226
e 125 216
e 144 229
e 56 116
e 116 167
e 157 168
e 9 41
e 28 54
e 14 119
e 5 70
e 32 173
e 178 227
e 197 240
e 49 113
e 90 114
e 35 178
e 169 178
e 114 242
e 7 116
e 134 157
e 34 219
e 67 167
e 53 232
e 172 183
e 72 245
e 213 221
e 232 234
e 56 237
e 9 162
e 231 238
e 102 124
e 146 167
e 5 191
e 32 65
e 44 119
e 49 234
e 16 57
e 2 122
e 81 186
e 53 124
e 144 242
e 6 12
e 37 116
e 56 129
e 97 130
e 157 181
e 9 54
e 50 55
e 143 246
e 8 58
e 27 71
e 32 186
e 159 227
e 11 63
e 71 114
e 197 253
e 2 243
e 76 192
e 150 178
e 2 14
e 62 65
e 48 130
e 53 245
e 6 133
e 56 250
e 4 60
e 212 238
e 23 73
e 9 175
e 50 176
e 64 74
e 124 125
e 215 243
e 127 130
e 27 192
e 30 197
e 145 184
e 2 135
e 76 84
e 29 238
e 48 251
e 208 240
e 120 127
e 106 192
e 6 254
e 139 140
e 6 25
e 4 181
e 18 79
e 78 130
e 97 143
e 138 181
e 124 246
e 36 133
e 55 146
e 96 184
e 201 237
e 8 71
e 27 84
e 25 240
e 44 253
e 219 254
e 71 127
e 112 128
e 57 192
e 29 130
e 15 195
e 48 143
e 120 248
e 194 197
e 1 31
e 6 146
e 18 200
e 59 238
e 4 73
e 45 74
e 64 87
e 124 138
e 36 254
e 3 77
e 108 130
e 8 192
e 27 205
e 85 146
e 145 197
e 186 198
e 24 136
e 57 84
e 84 187
e 249 254
e 1 152
e 87 192
e 106 205
e 18 92
e 4 194
e 45 195
e 59 130
e 64 208
e 12 18
e 119 144
e 17 133
e 36 146
e 163 187
e 108 251
e 242 251
e 121 190
e 200 254
e 38 192
e 24 28
e 115 146
e 1 44
e 54 136
e 73 149
e 18 213
e 59 251
e 193 214
e 45 87
e 17 254
e 91 203
e 110 216
e 3 90
e 89 93
e 75 195
e 66 146
e 167 198
e 19 34
e 24 149
e 10 214
e 84 200
e 63 77
e 189 216
e 82 90
e 230 254
e 101 103
e 1 165
e 128 206
e 147 219
e 40 93
e 100 144
e 45 208
e 64 221
e 17 146
e 3 211
e 163 200
e 121 203
e 140 216
e 93 104
e 98 219
e 54 149
e 40 214
e 73 162
e 114 163
e 174 214
e 26 50
e 67 88
e 72 166
e 177 219
e 70 93
e 130 144
e 116 209
e 149 157
e 28 96
e 167 211
e 5 112
e 65 163
e 10 227
e 170 216
e 63 90
e 49 155
e 82 103
e 128 219
e 21 93
e 40 106
e 81 107
e 67 209
e 70 214
e 3 224
e 144 163
e 204 214
e 102 166
e 14 53
e 93 117
e 5 233
e 79 219
e 146 209
e 32 107
e 63 211
e 156 173
e 21 214
e 40 227
e 155 214
e 7 50
e 26 63
e 53 166
e 72 179
e 158 219
e 199 220
e 218 233
e 56 171
e 9 96
e 129 161
e 93 238
e 41 48
e 60 61
e 32 228
e 65 176
e 151 179
e 44 53
e 192 217
e 211 230
e 49 168
e 35 233
e 109 219
e 169 233
e 21 106
e 7 171
e 81 120
e 34 45
e 172 238
e 53 58
e 144 176
e 56 63
e 9 217
e 41 169
e 74 117
e 146 222
e 5 246
e 32 120
e 44 174
e 159 161
e 16 112
e 81 241
e 48 64
e 53 179
e 199 233
e 6 67
e 56 184
e 74 238
e 160 241
e 27 126
e 13 228
e 32 241
e 25 53
e 118 244
e 151 192
e 192 230
e 71 169
e 16 233
e 150 233
e 2 69
e 7 184
e 103 121
e 134 225
e 153 238
e 6 188
e 185 190
e 4 115
e 226 228
e 23 128
e 9 230
e 124 180
e 229 233
e 36 67
e 27 247
e 60 195
e 99 123
e 44 187
e 159 174
e 104 238
e 145 239
e 178 187
e 16 125
e 2 190
e 136 190
e 81 254
e 29 64
e 48 77
e 34 179
e 139 195
e 180 233
e 240 247
e 6 80
e 4 236
e 92 120
e 23 249
e 4 7
e 97 198
e 50 123
e 36 188
e 22 24
e 8 126
e 27 139
e 99 244
e 66 67
e 233 244
e 30 144
e 16 246
e 217 236
e 236 249
e 2 82
e 84 121
e 103 134
e 48 198
e 122 147
e 134 238
e 15 21
e 175 239
e 1 86
e 6 201
e 166 190
e 111 254
e 18 26
e 4 128
e 45 129
e 59 64
e 64 142
e 124 193
e 17 67
e 143 206
e 36 80
e 22 145
e 8 247
e 8 18
e 145 252
e 2 203
e 84 242
e 98 140
e 10 27
e 101 145
e 1 207
e 120 195
e 161 196
e 73 83
e 18 147
e 4 249
e 59 185
e 133 134
e 31 86
e 17 188
e 36 201
e 163 242
e 55 214
e 3 24
e 182 255
e 8 139
e 66 80
e 11 144
e 52 145
e 38 247
e 131 209
e 217 249
e 24 83
e 84 134
e 29 198
e 216 253
e 1 99
e 128 140
e 73 204
e 188 191
e 45 142
e 64 155
e 17 80
e 58 81
e 3 145
e 168 212
e 209 250
e 85 214
e 167 253
e 24 204
e 84 255
e 203 206
e 10 40
e 82 145
e 1 220
e 161 209
e 202 210
e 54 83
e 73 96
e 205 252
e 31 99
e 17 201
e 163 255
e 3 37
e 135 156
e 195 207
e 214 220
e 112 209
e 198 212
e 24 96
e 65 97
e 10 161
e 115 214
e 54 204
e 128 153
e 73 217
e 21 27
e 147 166
e 12 207
e 31 220
e 3 158
e 89 161
e 130 199
e 149 212
e 42 86
e 168 225
e 80 112
e 88 202
e 121 150
e 33 37
e 79 153
e 24 217
e 65 218
e 32 41
e 63 145
e 51 54
e 142 209
e 202 223
e 21 148
e 40 161
e 53 100
e 72 113
e 56 105
e 9 30
e 80 233
e 195 220
e 88 94
e 5 59
e 65 110
e 197 229
e 49 102
e 54 217
e 21 40
e 7 105
e 153 159
e 53 221
e 86 169
e 72 234
e 70 161
e 56 226
e 130 212
e 9 151
e 42 99
e 162 164
e 60 116
e 5 180
e 146 156
e 65 231
e 13 41
e 151 234
e 32 54
e 63 158
e 49 223
e 16 46
e 35 59
e 21 161
e 95 110
e 7 226
e 81 175
e 227 229
e 53 113
e 72 126
e 125 218
e 144 231
e 56 118
e 9 43
e 28 56
e 14 121
e 60 237
e 27 60
e 46 110
e 32 175
e 30 65
e 16 167
e 49 115
e 150 167
e 2 3
e 7 118
e 48 119
e 153 172
e 172 185
e 72 247
e 20 57
e 111 175
e 56 239
e 4 49
e 171 226
e 190 239
e 9 164
e 102 126
e 146 169
e 5 193
e 13 54
e 151 247
e 44 121
e 49 236
e 145 173
e 16 59
e 57 60
e 2 124
e 62 175
e 7 239
e 48 240
e 81 188
e 208 229
e 227 242
e 6 14
e 138 170
e 102 247
e 69 70
e 8 60
e 27 73
e 99 178
e 11 65
e 178 242
e 219 243
e 16 180
e 90 129
e 2 245
e 2 16
e 48 132
e 6 135
e 4 62
e 212 240
e 64 76
e 50 178
e 105 114
e 124 127
e 108 119
e 8 181
e 27 194
e 25 121
e 145 186
e 57 73
e 2 137
e 43 138
e 84 176
e 117 124
e 48 253
e 18 81
e 4 183
e 64 197
e 105 235
e 124 248
e 17 122
e 36 135
e 127 253
e 8 73
e 140 192
e 200 243
e 112 130
e 117 245
e 175 186
e 120 250
e 161 251
e 194 199
e 1 33
e 73 138
e 6 148
e 18 202
e 133 189
e 45 76
e 64 89
e 17 243
e 91 192
e 124 140
e 196 245
e 3 79
e 8 194
e 127 145
e 27 207
e 167 187
e 38 73
e 24 138
e 43 151
e 84 189
e 170 192
e 230 243
e 1 154
e 18 94
e 4 196
e 45 197
e 119 146
e 64 210
e 12 20
e 105 248
e 17 135
e 3 200
e 36 148
e 77 149
e 108 253
e 182 202
e 75 76
e 121 192
e 140 205
e 184 248
e 24 30
e 1 46
e 54 138
e 73 151
e 18 215
e 193 216
e 45 89
e 3 92
e 89 95
e 130 133
e 33 200
e 66 148
e 167 200
e 19 36
e 79 87
e 24 151
e 65 152
e 10 216
e 98 100
e 63 79
e 109 195
e 1 167
e 128 208
e 142 143
e 21 82
e 40 95
e 100 146
e 45 210
e 12 33
e 3 213
e 89 216
e 130 254
e 42 141
e 75 89
e 61 154
e 80 167
e 121 205
e 181 219
e 63 200
e 54 151
e 40 216
e 7 39
e 174 216
e 86 103
e 31 167
e 72 168
e 89 108
e 130 146
e 116 211
e 47 111
e 52 226
e 19 49
e 5 114
e 65 165
e 151 168
e 192 206
e 211 219
e 63 92
e 49 157
e 68 170
e 128 221
e 21 95
e 7 160
e 40 108
e 67 211
e 141 160
e 70 216
e 144 165
e 37 39
e 204 216
e 28 219
e 61 167
e 162 219
e 74 106
e 60 171
e 5 235
e 146 211
e 5 6
e 32 109
e 63 213
e 51 122
e 16 101
e 35 114
e 21 216
e 40 229
e 81 230
e 114 178
e 7 52
e 155 216
e 26 65
e 67 103
e 53 168
e 72 181
e 218 235
e 56 173
e 9 98
e 69 112
e 148 176
e 41 50
e 60 63
e 5 127
e 32 230
e 151 181
e 51 243
e 44 55
e 192 219
e 104 106
e 49 170
e 150 222
e 2 58
e 7 173
e 81 122
e 122 123
e 134 214
e 141 173
e 125 165
e 144 178
e 37 52
e 56 65
e 9 219
e 41 171
e 146 224
e 5 248
e 206 238
e 32 122
e 16 114
e 2 179
e 21 229
e 62 230
e 76 128
e 81 243
e 29 53
e 48 66
e 20 233
e 53 181
e 39 246
e 6 69
e 92 109
e 111 122
e 23 238
e 56 186
e 171 173
e 157 238
e 9 111
e 69 125
e 8 115
e 41 63
e 27 128
e 132 181
e 32 243
e 118 246
e 173 182
e 16 235
e 35 248
e 217 225
e 236 238
e 2 71
e 48 187
e 122 136
e 106 128
e 6 190
e 185 192
e 4 117
e 226 230
e 23 130
e 9 232
e 50 233
e 124 182
e 143 195
e 36 69
e 96 120
e 41 184
e 27 249
e 187 238
e 44 189
e 11 12
e 145 241
e 57 128
e 2 192
e 136 192
e 48 79
e 120 184
e 221 236
e 240 249
e 6 82
e 4 238
e 18 136
e 4 9
e 138 238
e 36 190
e 96 241
e 3 13
e 8 128
e 27 141
e 173 195
e 66 69
e 233 246
e 30 146
e 16 248
e 57 249
e 217 238
e 24 72
e 84 123
e 48 200
e 15 23
e 1 88
e 87 128
e 6 203
e 166 192
e 18 28
e 4 130
e 45 131
e 59 66
e 64 144
e 124 195
e 17 69
e 36 82
e 8 249
e 209 239
e 228 252
e 80 88
e 121 126
e 145 254
e 38 128
e 24 193
e 84 244
e 15 144
e 1 209
e 161 198
e 54 72
e 221 249
e 73 85
e 18 149
e 4 251
e 45 252
e 59 187
e 17 190
e 36 203
e 22 39
e 94 144
e 80 209
e 195 196
e 66 82
e 52 147
e 24 85
e 43 98
e 84 136
e 175 254
e 216 255
e 1 101
e 54 193
e 73 206
e 128 142
e 147 155
e 45 144
e 86 145
e 31 209
e 105 195
e 191 198
e 210 211
e 17 82
e 3 147
e 77 96
e 168 214
e 209 252
e 80 101
e 121 139
e 107 204
e 126 217
e 167 255
e 19 91
e 24 206
e 184 195
e 43 219
e 10 42
e 63 134
e 142 198
e 1 222
e 161 211
e 54 85
e 40 150
e 73 98
e 119 214
e 246 255
e 12 88
e 17 203
e 72 102
e 75 144
e 116 145
e 61 209
e 28 32
e 195 209
e 214 222
e 93 161
e 198 214
e 5 48
e 65 99
e 49 91
e 54 206
e 128 155
e 73 219
e 21 29
e 40 42
e 67 145
e 12 209
e 72 223
e 130 201
e 149 214
e 5 169
e 65 220
e 32 43
e 63 147
e 51 56
e 49 212
e 123 161
e 35 48
e 21 150
e 40 163
e 100 214
e 53 102
e 72 115
e 144 220
e 56 107
e 42 209
e 9 32
e 176 209
e 28 45
e 47 58
e 88 96
e 74 161
e 179 214
e 5 61
e 32 164
e 65 112
e 51 177
e 49 104
e 68 117
e 21 42
e 114 233
e 7 107
e 153 161
e 172 174
e 72 236
e 56 228
e 130 214
e 171 215
e 23 51
e 9 153
e 83 102
e 102 115
e 162 166
e 41 105
e 146 158
e 5 182
e 65 233
e 151 236
e 32 56
e 104 161
e 49 225
e 68 238
e 16 48
e 21 163
e 7 228
e 81 177
e 227 231
e 53 115
e 125 220
e 144 233
e 56 120
e 97 121
e 138 159
e 157 172
e 9 45
e 220 228
e 27 62
e 32 177
e 197 244
e 16 169
e 150 169
e 95 233
e 2 5
e 7 120
e 48 121
e 134 161
e 53 236
e 6 124
e 39 72
e 4 51
e 212 229
e 23 64
e 9 166
e 83 115
e 231 242
e 27 183
e 13 56
e 151 249
e 145 175
e 164 188
e 16 61
e 2 126
e 7 241
e 48 242
e 81 190
e 15 65
e 34 115
e 125 233
e 6 16
e 4 172
e 18 70
e 78 121
e 124 237
e 157 185
e 50 59
e 36 124
e 69 72
e 201 228
e 60 252
e 8 62
e 27 75
e 113 115
e 44 244
e 11 67
e 219 245
e 71 118
e 16 182
e 2 247
e 131 132
e 2 18
e 222 250
e 29 121
e 48 134
e 134 174
e 120 239
e 1 22
e 6 137
e 4 64
e 45 65
e 64 78
e 231 255
e 124 129
e 215 247
e 22 81
e 8 183
e 108 121
e 27 196
e 66 124
e 145 188
e 186 189
e 38 62
e 2 139
e 43 140
e 84 178
e 103 191
e 48 255
e 208 244
e 15 78
e 1 143
e 166 247
e 18 83
e 4 185
e 59 121
e 23 198
e 64 199
e 124 250
e 17 124
e 36 137
e 163 178
e 55 150
e 182 191
e 127 255
e 8 75
e 52 81
e 38 183
e 131 145
e 76 209
e 117 247
e 203 250
e 161 253
e 1 35
e 73 140
e 18 204
e 152 204
e 45 78
e 31 143
e 17 245
e 64 91
e 110 207
e 237 248
e 3 81
e 22 94
e 8 196
e 85 150
e 126 151
e 167 189
e 24 140
e 84 191
e 1 156
e 106 209
e 147 210
e 40 84
e 45 199
e 64 212
e 17 137
e 3 202
e 77 151
e 75 78
e 121 194
e 33 81
e 93 95
e 112 145
e 15 212
e 73 153
e 18 217
e 155 192
e 193 218
e 70 84
e 3 94
e 89 97
e 130 135
e 107 151
e 167 202
e 19 38
e 24 153
e 65 154
e 63 81
e 68 159
e 142 145
e 128 210
e 21 84
e 40 97
e 45 212
e 141 149
e 58 151
e 3 215
e 77 164
e 144 154
e 204 205
e 61 156
e 121 207
e 74 95
e 32 98
e 63 202
e 137 151
e 156 164
e 21 205
e 54 153
e 40 218
e 114 167
e 7 41
e 26 54
e 12 156
e 53 157
e 86 105
e 72 170
e 56 162
e 130 148
e 116 213
e 9 87
e 88 151
e 74 216
e 148 165
e 19 51
e 5 116
e 65 167
e 151 170
e 51 232
e 192 208
e 63 94
e 49 159
e 169 224
e 21 97
e 7 162
e 81 111
e 34 36
e 172 229
e 144 167
e 60 173
e 5 237
e 146 213
e 32 111
e 63 215
e 51 124
e 104 216
e 137 164
e 16 103
e 21 218
e 95 167
e 40 231
e 136 168
e 7 54
e 48 55
e 53 170
e 72 183
e 56 175
e 129 165
e 160 232
e 60 65
e 5 129
e 13 219
e 32 232
e 25 44
e 46 167
e 44 57
e 151 183
e 104 108
e 16 224
e 49 172
e 192 221
e 2 60
e 62 111
e 7 175
e 48 176
e 67 226
e 81 124
e 122 125
e 34 49
e 134 216
e 153 229
e 125 167
e 70 231
e 37 54
e 9 221
e 102 183
e 14 70
e 146 226
e 5 250
e 99 114
e 16 116
e 2 181
e 76 130
e 62 232
e 81 245
e 48 68
e 34 170
e 139 186
e 180 224
e 6 71
e 111 124
e 50 114
e 110 128
e 55 192
e 8 117
e 41 65
e 27 130
e 113 170
e 32 245
e 25 57
e 173 184
e 233 235
e 16 237
e 131 187
e 2 73
e 84 112
e 48 189
e 194 243
e 106 130
e 6 192
e 4 119
e 9 234
e 64 133
e 124 184
e 17 58
e 229 237
e 36 71
e 55 84
e 8 238
e 27 251
e 8 9
e 85 192
e 159 178
e 11 14
e 145 243
e 57 130
e 2 194
e 43 195
e 76 143
e 103 246
e 117 181
e 161 187
e 106 251
e 221 238
e 73 74
e 6 84
e 4 240
e 18 138
e 64 254
e 17 179
e 91 128
e 36 192
e 3 15
e 182 246
e 8 130
e 94 133
e 66 71
e 38 238
e 24 74
e 43 87
e 84 125
e 115 192
e 1 90
e 87 130
e 73 195
e 6 205
e 18 30
e 45 133
e 64 146
e 124 197
e 17 71
e 3 136
e 36 84
e 77 85
e 8 251
e 108 189
e 209 241
e 121 128
e 66 192
e 140 141
e 38 130
e 24 195
e 98 144
e 84 246
e 10 31
e 15 146
e 142 187
e 1 211
e 161 200
e 54 74
e 73 87
e 18 151
e 4 253
e 45 254
e 12 77
e 17 192
e 91 141
e 36 205
e 3 28
e 94 146
e 121 249
e 195 198
e 66 84
e 52 149
e 24 87
e 65 88
e 10 152
e 109 131
e 1 103
e 54 195
e 73 208
e 128 144
e 188 195
e 45 146
e 3 149
e 130 190
e 168 216
e 209 254
e 121 141
e 66 205
e 126 219
e 79 144
e 24 208
e 65 209
e 63 136
e 1 224
e 202 214
e 54 87
e 40 152
e 119 216
e 72 104
e 77 219
e 61 211
e 195 211
e 19 214
e 198 216
e 5 50
e 65 101
e 156 219
e 109 144
e 54 208
e 95 209
e 128 157
e 21 31
e 7 96
e 40 44
e 72 225
e 39 48
e 130 203
e 149 216
e 107 219
e 148 220
e 19 106
e 146 147
e 5 171
e 46 209
e 13 32
e 151 225
e 32 45
e 63 149
e 51 58
e 49 214
e 123 163
e 68 227
e 16 37
e 183 214
e 35 50
e 21 152
e 40 165
e 81 166
e 141 217
e 34 91
e 53 104
e 72 117
e 58 219
e 125 209
e 144 222
e 56 109
e 157 161
e 9 34
e 74 163
e 179 216
e 5 63
e 32 166
e 51 179
e 137 219
e 197 233
e 49 106
e 90 107
e 150 158
e 169 171
e 7 109
e 134 150
e 53 225
e 213 214
e 72 238
e 20 48
e 23 53
e 9 155
e 14 233
e 88 219
e 148 233
e 146 160
e 5 184
e 13 45
e 151 238
e 32 58
e 49 227
e 164 177
e 16 50
e 2 115
e 35 63
e 7 230
e 81 179
e 26 243
e 227 233
e 53 117
e 37 109
e 56 122
e 138 161
e 9 47
e 102 238
e 55 126
e 201 217
e 8 51
e 27 64
e 32 179
e 44 233
e 118 182
e 11 56
e 178 233
e 16 171
e 2 7
e 48 123
e 34 225
e 53 238
e 6 126
e 37 230
e 56 243
e 4 53
e 9 168
e 64 67
e 129 233
e 41 120
e 27 185
e 113 225
e 132 238
e 44 125
e 145 177
e 38 51
e 57 64
e 2 128
e 48 244
e 208 233
e 6 247
e 39 195
e 6 18
e 4 174
e 18 72
e 78 123
e 97 136
e 83 238
e 124 239
e 138 174
e 185 249
e 36 126
e 96 177
e 8 64
e 27 77
e 25 233
e 113 117
e 118 195
e 159 233
e 219 247
e 71 120
e 112 121
e 57 185
e 2 249
e 131 134
e 203 239
e 48 136
e 1 24
e 6 139
e 18 193
e 4 66
e 212 244
e 64 80
e 124 131
e 36 247
e 69 195
e 196 236
e 3 70
e 8 185
e 27 198
e 112 242
e 145 190
e 38 64
e 131 255
e 24 129
e 186 191
e 84 180
e 29 244
e 189 196
e 1 145
e 87 185
e 207 250
e 18 85
e 4 187
e 45 188
e 59 123
e 64 201
e 124 252
e 210 255
e 17 126
e 36 139
e 242 244
e 80 145
e 99 195
e 140 196
e 200 247
e 131 147
e 142 242
e 175 190
e 161 255
e 1 37
e 54 129
e 73 142
e 18 206
e 45 80
e 31 145
e 17 247
e 3 83
e 8 198
e 94 201
e 195 253
e 11 203
e 167 191
e 19 27
e 24 142
e 84 193
e 63 70
e 189 209
e 82 83
e 230 247
e 1 158
e 128 199
e 40 86
e 45 201
e 64 214
e 12 24
e 191 255
e 17 139
e 3 204
e 75 80
e 61 145
e 121 196
e 140 209
e 52 96
e 137 140
e 54 142
e 40 207
e 73 155
e 114 156
e 26 43
e 12 145
e 67 81
e 86 94
e 72 159
e 91 209
e 70 86
e 130 137
e 75 201
e 149 150
e 94 214
e 47 102
e 126 166
e 167 204
e 19 40
e 5 105
e 46 143
e 65 156
e 10 220
e 170 209
e 63 83
e 49 148
e 68 161
e 128 212
e 21 86
e 40 99
e 141 151
e 144 156
e 204 207
e 42 145
e 14 46
e 19 161
e 5 226
e 32 100
e 63 204
e 137 153
e 123 218
e 21 207
e 95 156
e 40 220
e 114 169
e 155 207
e 7 43
e 26 56
e 12 158
e 53 159
e 72 172
e 218 226
e 56 164
e 130 150
e 9 89
e 14 167
e 129 154
e 148 167
e 5 118
e 132 159
e 32 221
e 65 169
e 151 172
e 44 46
e 192 210
e 49 161
e 21 99
e 7 164
e 81 113
e 34 38
e 144 169
e 89 233
e 9 210
e 28 223
e 47 236
e 14 59
e 74 110
e 146 215
e 5 239
e 165 228
e 32 113
e 44 167
e 63 217
e 16 105
e 21 220
e 136 170
e 81 234
e 7 56
e 48 57
e 53 172
e 139 175
e 6 60
e 92 100
e 218 239
e 56 177
e 116 228
e 9 102
e 69 116
e 129 167
e 148 180
e 41 54
e 27 119
e 132 172
e 32 234
e 151 185
e 192 223
e 30 124
e 16 226
e 104 110
e 2 62
e 7 177
e 48 178
e 103 114
e 122 127
e 34 51
e 4 108
e 37 56
e 23 121
e 9 223
e 124 173
e 143 186
e 36 60
e 55 73
e 27 240
e 60 188
e 13 113
e 25 167
e 159 167
e 145 232
e 178 180
e 164 245
e 16 118
e 2 183
e 136 183
e 81 247
e 29 57
e 122 248
e 48 70
e 6 73
e 4 229
e 92 113
e 243 245
e 36 181
e 110 130
e 8 119
e 27 132
e 233 237
e 11 124
e 30 137
e 16 239
e 2 75
e 84 114
e 103 127
e 48 191
e 1 79
e 87 119
e 106 132
e 6 194
e 166 183
e 18 19
e 4 121
e 23 134
e 64 135
e 124 186
e 17 60
e 143 199
e 36 73
e 96 124
e 8 240
e 127 191
e 27 253
e 8 11
e 187 242
e 85 194
e 11 16
e 145 245
e 38 119
e 2 196
e 43 197
e 76 145
e 84 235
e 87 240
e 20 250
e 106 253
e 161 189
e 221 240
e 73 76
e 18 140
e 4 242
e 119 192
e 224 245
e 91 130
e 36 194
e 3 17
e 22 30
e 8 132
e 154 186
e 66 73
e 11 137
e 85 86
e 38 240
e 131 202
e 24 76
e 84 127
e 1 92
e 128 133
e 73 197
e 45 135
e 64 148
e 17 73
e 3 138
e 22 151
e 8 253
e 149 192
e 209 243
e 121 130
e 66 194
e 140 143
e 167 246
e 24 197
e 98 146
e 84 248
e 170 251
e 184 186
e 82 138
e 101 151
e 1 213
e 161 202
e 202 203
e 54 76
e 73 89
e 100 192
e 205 245
e 17 194
e 58 195
e 135 149
e 121 251
e 195 200
e 52 151
e 38 253
e 179 192
e 24 89
e 65 90
e 10 154
e 68 95
e 54 197
e 128 146
e 73 210
e 114 211
e 188 197
e 45 148
e 86 149
e 3 151
e 130 192
e 88 195
e 121 143
e 79 146
e 24 210
e 65 211
e 32 34
e 63 138
e 68 216
e 1 226
e 183 203
e 35 39
e 21 141
e 54 89
e 40 154
e 202 216
e 53 93
e 72 106
e 144 211
e 77 221
e 56 98
e 9 23
e 28 36
e 47 49
e 33 151
e 19 216
e 5 52
e 65 103
e 10 167
e 156 221
e 197 222
e 49 95
e 68 108
e 54 210
e 109 146
e 21 33
e 114 224
e 7 98
e 67 149
e 72 227
e 39 50
e 89 167
e 130 205
e 190 219
e 146 149
e 5 173
e 65 224
e 151 227
e 32 47
e 63 151
e 49 216
e 68 229
e 16 39
e 183 216
e 21 154
e 95 103
e 7 219
e 40 167
e 141 219
e 53 106
e 72 119
e 144 224
e 56 111
e 83 214
e 116 162
e 9 36
e 28 49
e 14 114
e 160 168
e 201 206
e 46 103
e 32 168
e 137 221
e 150 160
e 169 173
e 7 111
e 48 112
e 34 214
e 53 227
e 213 216
e 72 240
e 39 63
e 37 219
e 70 167
e 56 232
e 4 42
e 171 219
e 23 55
e 9 157
e 231 233
e 69 171
e 102 119
e 113 214
e 5 186
e 146 162
e 25 101
e 151 240
e 104 165
e 49 229
e 16 52
e 2 117
e 7 232
e 81 181
e 227 235
e 34 106
e 6 7
e 185 238
e 23 176
e 157 176
e 55 128
e 160 181
e 201 219
e 8 53
e 27 66
e 32 181
e 11 58
e 219 236
e 16 173
e 90 122
e 2 238
e 2 9
e 136 238
e 48 125
e 20 63
e 6 128
e 4 55
e 97 246
e 212 233
e 9 170
e 64 69
e 105 107
e 231 246
e 215 238
e 8 174
e 27 187
e 113 227
e 85 128
e 30 192
e 71 230
e 145 179
e 38 53
e 164 192
e 2 130
e 76 79
e 29 233
e 103 182
e 48 246
e 122 195
e 120 122
e 106 187
e 6 249
e 166 238
e 6 20
e 4 176
e 18 74
e 64 190
e 124 241
e 17 115
e 50 63
e 36 128
e 108 233
e 8 66
e 99 184
e 200 236
e 219 249
e 57 187
e 2 251
e 117 238
e 222 254
e 115 128
e 161 244
e 1 26
e 73 131
e 6 141
e 18 195
e 59 233
e 152 195
e 45 69
e 64 82
e 105 120
e 124 133
e 36 249
e 196 238
e 3 72
e 108 125
e 8 187
e 27 200
e 214 255
e 66 128
e 11 192
e 85 141
e 24 131
e 43 144
e 84 182
e 103 195
e 1 147
e 18 87
e 4 189
e 45 190
e 64 203
e 12 13
e 124 254
e 17 128
e 3 193
e 36 141
e 22 206
e 77 142
e 163 182
e 182 195
e 242 246
e 80 147
e 121 185
e 33 72
e 200 249
e 24 252
e 184 241
e 203 254
e 1 39
e 73 144
e 18 208
e 133 195
e 193 209
e 45 82
e 17 249
e 237 252
e 3 85
e 195 255
e 167 193
e 24 144
e 65 145
e 10 209
e 84 195
e 63 72
e 82 85
e 1 160
e 54 252
e 128 201
e 147 214
e 188 252
e 40 88
e 45 203
e 31 39
e 3 206
e 77 155
e 22 219
e 89 209
e 130 247
e 163 195
e 121 198
e 98 214
e 63 193
e 137 142
e 101 219
e 54 144
e 95 145
e 40 209
e 7 32
e 26 45
e 67 83
e 86 96
e 72 161
e 177 214
e 130 139
e 75 203
e 88 142
e 52 219
e 148 156
e 5 107
e 46 145
e 65 158
e 151 161
e 170 211
e 211 212
e 63 85
e 49 150
e 128 214
e 21 88
e 7 153
e 40 101
e 81 102
e 125 145
e 58 155
e 70 209
e 144 158
e 204 209
e 102 161
e 181 225
e 146 204
e 5 228
e 79 214
e 165 217
e 32 102
e 63 206
e 51 115
e 82 219
e 123 220
e 137 155
e 35 107
e 21 209
e 40 222
e 81 223
e 155 209
e 7 45
e 26 58
e 53 161
e 72 174
e 158 214
e 199 215
e 56 166
e 9 91
e 14 169
e 88 155
e 93 233
e 41 43
e 132 161
e 32 223
e 151 174
e 192 212
e 44 48
e 49 163
e 109 214
e 2 51
e 7 166
e 81 115
e 34 40
e 172 233
e 39 118
e 144 171
e 37 45
e 23 110
e 9 212
e 56 58
e 83 161
e 47 238
e 143 175
e 96 100
e 5 241
e 32 115
e 123 233
e 16 107
e 21 222
e 76 121
e 136 172
e 81 236
e 48 59
e 34 161
e 53 174
e 6 62
e 56 179
e 9 104
e 129 169
e 74 233
e 41 56
e 27 121
e 113 161
e 32 236
e 25 48
e 173 175
e 44 61
e 16 228
e 2 64
e 29 167
e 48 180
e 153 233
e 194 234
e 106 121
e 6 183
e 4 110
e 9 225
e 124 175
e 36 62
e 55 75
e 96 113
e 27 242
e 99 118
e 159 169
e 30 247
e 104 233
e 145 234
e 16 120
e 57 121
e 2 185
e 136 185
e 122 250
e 15 124
e 48 72
e 139 190
e 39 252
e 221 229
e 240 242
e 6 75
e 4 231
e 18 129
e 59 167
e 243 247
e 36 183
e 3 6
e 8 121
e 27 134
e 154 175
e 173 188
e 25 61
e 233 239
e 16 241
e 24 65
e 236 244
e 84 116
e 48 193
e 134 233
e 15 16
e 194 247
e 1 81
e 87 121
e 6 196
e 18 250
e 18 21
e 4 123
e 45 124
e 64 137
e 124 188
e 17 62
e 36 75
e 108 180
e 8 242
e 27 255
e 228 245
e 80 81
e 85 196
e 145 247
e 38 121
e 84 237
e 189 253
e 101 140
e 1 202
e 161 191
e 54 65
e 73 78
e 18 142
e 4 244
e 45 245
e 31 81
e 17 183
e 36 196
e 110 145
e 96 247
e 3 19
e 22 32
e 8 134
e 75 124
e 66 75
e 11 139
e 24 78
e 84 129
e 216 248
e 1 94
e 87 134
e 73 199
e 128 135
e 147 148
e 45 137
e 64 150
e 17 75
e 3 140
e 8 255
e 209 245
e 61 81
e 121 132
e 140 145
e 167 248
e 19 84
e 24 199
e 184 188
e 84 250
e 142 191
e 1 215
e 161 204
e 202 205
e 54 78
e 40 143
e 73 91
e 12 81
e 31 94
e 72 95
e 135 151
e 121 253
e 195 202
e 214 215
e 198 207
e 5 41
e 65 92
e 49 84
e 54 199
e 128 148
e 73 212
e 21 22
e 114 213
e 147 161
e 86 151
e 3 153
e 130 194
e 42 81
e 126 223
e 5 162
e 79 148
e 65 213
e 32 36
e 63 140
e 202 218
e 21 143
e 40 156
e 53 95
e 72 108
e 144 213
e 56 100
e 116 151
e 9 25
e 88 89
e 93 167
e 179 207
e 5 54
e 32 157
e 65 105
e 49 97
e 21 35
e 114 226
e 7 100
e 67 151
e 12 215
e 53 216
e 153 154
e 72 229
e 56 221
e 130 207
e 9 146
e 146 151
e 5 175
e 132 216
e 65 226
e 13 36
e 151 229
e 32 49
e 63 153
e 49 218
e 123 167
e 16 41
e 35 54
e 21 156
e 95 105
e 7 221
e 81 170
e 53 108
e 144 226
e 37 100
e 56 113
e 157 165
e 9 38
e 74 167
e 220 221
e 27 55
e 13 157
e 32 170
e 118 173
e 197 237
e 90 111
e 7 113
e 48 114
e 34 216
e 153 167
e 53 229
e 172 180
e 72 242
e 20 52
e 6 117
e 39 65
e 56 234
e 4 44
e 9 159
e 83 108
e 148 237
e 27 176
e 60 124
e 113 216
e 13 49
e 151 242
e 104 167
e 145 168
e 16 54
e 2 119
e 48 235
e 81 183
e 208 224
e 6 9
e 4 165
e 37 113
e 185 240
e 50 52
e 143 243
e 36 117
e 55 130
e 8 55
e 27 68
e 13 170
e 219 238
e 30 73
e 16 175
e 71 111
e 2 240
e 90 124
e 2 11
e 222 243
e 48 127
e 134 167
e 120 232
e 6 130
e 111 183
e 152 184
e 4 57
e 212 235
e 64 71
e 105 109
e 8 176
e 27 189
e 154 230
e 85 130
e 145 181
e 38 55
e 2 132
e 84 171
e 117 119
e 48 248
e 15 71
e 120 124
e 6 251
e 18 76
e 4 178
e 59 114
e 78 127
e 64 192
e 119 128
e 124 243
e 210 246
e 36 130
e 8 68
e 44 250
e 200 238
e 11 73
e 219 251
e 2 253
e 131 138
e 203 243
e 115 130
e 15 192
e 161 246
e 1 28
e 73 133
e 18 197
e 193 198
e 45 71
e 31 136
e 17 238
e 64 84
e 36 251
e 3 74
e 22 87
e 8 189
e 94 192
e 66 130
e 52 195
e 126 144
e 167 182
e 186 195
e 24 133
e 43 146
e 84 184
e 170 187
e 230 238
e 249 251
e 1 149
e 73 254
e 207 254
e 18 89
e 100 128
e 45 192
e 64 205
e 12 15
e 191 246
e 17 130
e 3 195
e 77 144
e 163 184
e 121 187
e 38 189
e 24 254
e 24 25
e 82 195
e 73 146
e 18 210
e 59 248
e 133 197
e 26 34
e 67 72
e 193 211
e 17 251
e 3 87
e 89 90
e 75 192
e 135 206
e 88 131
e 33 195
e 107 144
e 167 195
e 24 146
e 65 147
e 63 74
e 54 254
e 128 203
e 21 77
e 40 90
e 100 141
e 45 205
e 141 142
e 12 28
e 58 144
e 3 208
e 130 249
e 144 147
e 47 214
e 121 200
e 181 214
e 74 88
e 93 101
e 63 195
e 137 144
e 82 208
e 156 157
e 21 198
e 54 146
e 40 211
e 7 34
e 26 47
e 53 150
e 72 163
e 177 216
e 130 141
e 135 219
e 88 144
e 74 209
e 19 44
e 5 109
e 65 160
e 151 163
e 192 201
e 211 214
e 63 87
e 49 152
e 128 216
e 21 90
e 7 155
e 40 103
e 81 104
e 86 219
e 125 147
e 144 160
e 28 214
e 162 214
e 146 206
e 5 230
e 165 219
e 32 104
e 63 208
e 104 209
e 16 96
e 21 211
e 40 224
e 81 225
e 136 161
e 7 47
e 155 211
e 53 163
e 139 166
e 39 228
e 72 176
e 158 216
e 56 168
e 116 219
e 157 220
e 9 93
e 148 171
e 160 225
e 41 45
e 5 122
e 32 225
e 151 176
e 51 238
e 192 214
e 211 227
e 16 217
e 49 165
e 2 53
e 7 168
e 81 117
e 67 219
e 134 209
e 34 42
e 9 214
e 69 228
e 102 176
e 14 63
e 55 64
e 96 102
e 146 219
e 5 243
e 206 233
e 99 107
e 32 117
e 164 236
e 16 109
e 2 174
e 117 161
e 81 238
e 29 48
e 48 61
e 139 179
e 39 241
e 6 64
e 23 233
e 157 233
e 160 238
e 8 110
e 27 123
e 32 238
e 44 63
e 30 128
e 16 230
e 90 179
e 217 220
e 2 66
e 103 118
e 48 182
e 106 123
e 6 185
e 166 174
e 111 238
e 185 187
e 4 112
e 9 227
e 50 228
e 64 126
e 124 177
e 17 51
e 143 190
e 36 64
e 229 230
e 8 231
e 27 244
e 187 233
e 99 120
e 145 236
e 38 110
e 2 187
e 117 174
e 62 238
e 29 61
e 161 180
e 240 244
e 6 77
e 4 233
e 18 131
e 59 169
e 64 247
e 97 195
e 138 233
e 91 121
e 36 185
e 3 8
e 8 123
e 94 126
e 27 136
e 99 241
e 233 241
e 11 128
e 217 233
e 24 67
e 84 118
e 15 18
e 235 250
e 1 83
e 6 198
e 18 252
e 92 238
e 18 23
e 4 125
e 45 126
e 59 61
e 64 139
e 50 241
e 105 177
e 124 190
e 17 64
e 110 255
e 3 129
e 36 77
e 77 78
e 8 244
e 127 195
e 209 234
e 80 83
e 145 249
e 186 250
e 24 188
e 84 239
e 10 24
e 1 204
e 161 193
e 54 67
e 73 80
e 18 144
e 4 246
e 45 247
e 17 185
e 3 250
e 36 198
e 3 21
e 75 126
e 121 242
e 154 190
e 24 80
e 65 81
e 10 145
e 216 250
e 68 86
e 1 96
e 54 188
e 73 201
e 128 137
e 133 252
e 147 150
e 45 139
e 3 142
e 89 145
e 130 183
e 149 196
e 168 209
e 209 247
e 80 96
e 33 250
e 121 134
e 167 250
e 24 201
e 184 190
e 43 214
e 84 252
e 63 129
e 1 217
e 202 207
e 54 80
e 40 145
e 119 209
e 72 97
e 204 253
e 75 139
e 121 255
e 195 204
e 198 209
e 46 81
e 65 94
e 63 250
e 156 212
e 49 86
e 54 201
e 128 150
e 21 24
e 7 89
e 26 102
e 12 204
e 72 218
e 130 196
e 149 209
e 42 83
e 47 161
e 5 164
e 32 38
e 63 142
e 49 207
e 35 43
e 21 145
e 40 158
e 81 159
e 34 84
e 53 97
e 72 110
e 58 212
e 144 215
e 37 89
e 56 102
e 9 27
e 176 204
e 28 40
e 88 91
e 74 156
e 179 209
e 5 56
e 32 159
e 49 99
e 150 151
e 7 102
e 153 156
e 53 218
e 72 231
e 39 54
e 70 158
e 56 223
e 171 210
e 9 148
e 28 161
e 102 110
e 129 213
e 146 153
e 5 177
e 165 166
e 65 228
e 151 231
e 32 51
e 68 233
e 16 43
e 2 108
e 21 158
e 35 56
e 7 223
e 62 159
e 81 172
e 208 213
e 53 110
e 144 228
e 23 167
e 56 115
e 97 116
e 157 167
e 9 40
e 55 119
e 201 210
e 60 234
e 27 57
e 13 159
e 32 172
e 30 62
e 16 164
e 35 177
e 117 216
e 48 116
e 153 169
e 53 231
e 20 54
e 6 119
e 92 159
e 111 172
e 56 236
e 4 46
e 9 161
e 50 162
e 27 178
e 145 170
e 2 121
e 62 172
e 48 237
e 122 186
e 106 178
e 6 240
e 6 11
e 4 167
e 18 65
e 138 167
e 124 232
e 50 54
e 36 119
e 41 234
e 127 237
e 8 57
e 27 70
e 13 172
e 44 239
e 11 62
e 219 240
e 71 113
e 16 177
e 112 114
e 2 242
e 117 229
e 136 242
e 115 119
e 120 234
e 139 247
e 1 17
e 6 132
e 18 186
e 133 173
e 4 59
e 45 60
e 64 73
e 105 111
e 36 240
e 108 116
e 8 178
e 27 191
e 66 119
e 85 132
e 145 183
e 24 122
e 84 173
e 48 250
e 15 73
e 1 138
e 6 253
e 166 242
e 18 78
e 4 180
e 45 181
e 119 130
e 64 194
e 124 245
e 17 119
e 36 132
e 140 189
e 200 240
e 11 75
e 219 253
e 2 255
e 98 192
e 175 183
e 161 248
e 1 30
e 54 122
e 73 135
e 18 199
e 59 237
e 133 186
e 193 200
e 45 73
e 64 86
e 17 240
e 105 124
e 36 253
e 196 242
e 3 76
e 8 191
e 107 133
e 167 184
e 19 20
e 24 135
e 84 186
e 249 253
e 1 151
e 128 192
e 40 79
e 100 130
e 45 194
e 64 207
e 12 17
e 17 132
e 77 146
e 80 151
e 121 189
e 79 192
e 54 135
e 40 200
e 73 148
e 155 187
e 26 36
e 67 74
e 86 87
e 31 151
e 17 253
e 91 202
e 158 192
e 177 205
e 70 79
e 3 89
e 89 92
e 94 207
e 107 146
e 167 197
e 179 251
e 5 98
e 79 84
e 65 149
e 63 76
e 49 141
e 109 192
e 128 205
e 21 79
e 40 92
e 67 195
e 141 144
e 12 30
e 58 146
e 3 210
e 130 251
e 144 149
e 61 151
e 47 216
e 121 202
e 181 216
e 74 90
e 79 205
e 32 93
e 63 197
e 137 146
e 82 210
e 156 159
e 35 98
e 21 200
e 40 213
e 7 36
e 26 49
e 12 151
e 53 152
e 72 165
e 218 219
e 56 157
e 89 105
e 130 143
e 9 82
e 88 146
e 129 147
e 5 111
e 32 214
e 65 162
e 151 165
e 192 203
e 211 216
e 49 154
e 35 219
e 68 167
e 169 219
e 21 92
e 7 157
e 81 106
e 141 157
e 144 162
e 9 203
e 42 151
e 28 216
e 102 165
e 162 216
e 74 103
e 146 208
e 5 232
e 206 222
e 32 106
e 63 210
e 16 98
e 21 213
e 62 214
e 81 227
e 7 49
e 48 50
e 53 165
e 199 219
e 6 53
e 92 93
e 56 170
e 9 95
e 69 109
e 41 47
e 27 112
e 13 214
e 113 152
e 32 227
e 118 230
e 51 240
e 44 52
e 192 216
e 16 219
e 150 219
e 2 55
e 169 232
e 62 106
e 7 170
e 48 171
e 81 119
e 153 224
e 172 237
e 20 109
e 92 214
e 4 101
e 37 49
e 9 216
e 124 166
e 36 53
e 96 104
e 27 233
e 146 221
e 159 160
e 145 225
e 164 238
e 16 111
e 57 112
e 2 176
e 117 163
e 136 176
e 81 240
e 48 63
e 180 219
e 6 66
e 4 222
e 92 106
e 111 119
e 138 222
e 69 122
e 110 123
e 8 112
e 27 125
e 25 52
e 30 130
e 16 232
e 57 233
e 217 222
e 2 68
e 84 107
e 48 184
e 194 238
e 1 72
e 6 187
e 226 227
e 4 114
e 64 128
e 124 179
e 17 53
e 143 192
e 36 66
e 96 117
e 8 233
e 27 246
e 228 236
e 11 238
e 85 187
e 145 238
e 2 189
e 84 228
e 29 63
e 15 128
e 87 233
e 161 182
e 221 233
e 240 246
e 18 133
e 4 235
e 59 171
e 64 249
e 224 238
e 31 72
e 17 174
e 50 122
e 36 187
e 91 123
e 96 238
e 3 10
e 243 251
e 22 23
e 8 125
e 94 128
e 99 243
e 173 192
e 11 130
e 38 233
e 131 195
e 24 69
e 43 82
e 84 120
e 175 238
e 1 85
e 73 190
e 6 200
e 18 254
e 59 63
e 45 128
e 64 141
e 17 66
e 58 67
e 3 131
e 22 144
e 8 246
e 94 249
e 209 236
e 61 72
e 121 123
e 167 239
e 79 126
e 24 190
e 98 139
e 84 241
e 82 131
e 15 141
e 101 144
e 1 206
e 87 246
e 142 182
e 54 69
e 161 195
e 73 82
e 18 146
e 45 249
e 205 238
e 12 72
e 224 251
e 17 187
e 3 252
e 36 200
e 3 23
e 182 254
e 75 128
e 223 255
e 135 142
e 121 244
e 176 180
e 52 144
e 112 195
e 24 82
e 65 83
e 216 252
e 54 190
e 128 139
e 73 203
e 188 190
e 174 255
e 45 141
e 86 142
e 31 206
e 191 195
e 3 144
e 77 93
e 130 185
e 42 72
e 209 249
e 121 136
e 126 214
e 167 252
e 253 255
e 65 204
e 10 39
e 63 131
e 82 144
e 68 209
e 1 219
e 142 195
e 202 209
e 21 134
e 54 82
e 40 147
e 53 86
e 72 99
e 77 214
e 56 91
e 80 219
e 28 29
e 74 145
e 19 209
e 93 158
e 198 211
e 5 45
e 65 96
e 63 252
e 51 161
e 137 201
e 156 214
e 49 88
e 21 255
e 54 203
e 128 152
e 21 26
e 7 91
e 31 219
e 72 220
e 130 198
e 83 86
e 88 201
e 107 214
e 234 255
e 5 166
e 65 217
e 13 27
e 151 220
e 32 40
e 63 144
e 51 53
e 49 209
e 104 145
e 16 32
e 183 209
e 35 45
e 21 147
e 95 96
e 7 212
e 40 160
e 81 161
e 53 99
e 72 112
e 144 217
e 56 104
e 116 155
e 61 219
e 9 29
e 28 42
e 160 161
e 5 58
e 32 161
e 137 214
e 16 153
e 49 101
e 7 104
e 48 105
e 67 155
e 134 145
e 53 220
e 153 158
e 72 233
e 20 43
e 39 56
e 111 161
e 56 225
e 23 48
e 9 150
e 83 99
e 146 155
e 5 179
e 13 40
e 151 233
e 49 222
e 164 172
e 16 45
e 2 110
e 62 161
e 7 225
e 81 174
e 26 238
e 227 228
e 34 99
e 102 233
e 55 121
e 8 46
e 27 59
e 13 161
e 32 174
e 159 215
e 11 51
e 30 64
e 16 166
e 2 231
e 150 166
e 48 118
e 134 158
e 120 223
e 53 233
e 20 56
e 6 121
e 92 161
e 56 238
e 4 48
e 212 226
e 9 163
e 231 239
e 215 231
e 8 167
e 27 180
e 132 233
e 11 172
e 44 120
e 30 185
e 85 121
e 145 172
e 38 46
e 57 59
e 2 123
e 62 174
e 48 239
e 15 62
e 6 242
e 166 231
e 6 13
e 4 169
e 18 67
e 23 182
e 64 183
e 78 118
e 83 233
e 124 234
e 17 108
e 50 56
e 36 121
e 127 239
e 8 59
e 27 72
e 85 242
e 200 229
e 11 64
e 219 242
e 38 167
e 112 116
e 2 244
e 117 231
e 136 244
e 115 121
e 1 19
e 73 124
e 6 134
e 18 188
e 78 239
e 152 188
e 4 61
e 45 62
e 212 239
e 64 75
e 105 113
e 91 178
e 36 242
e 124 126
e 3 65
e 8 180
e 94 183
e 27 193
e 66 121
e 30 198
e 145 185
e 131 250
e 24 124
e 57 72
e 84 175
e 103 188
e 48 252
e 189 191
e 1 140
e 6 255
e 147 194
e 188 232
e 18 80
e 4 182
e 45 183
e 119 132
e 64 196
e 124 247
e 210 250
e 17 121
e 3 186
e 36 134
e 121 178
e 33 65
e 38 180
e 24 245
e 10 81
e 161 250
e 1 32
e 54 124
e 73 137
e 18 201
e 59 239
e 45 75
e 17 242
e 36 255
e 237 245
e 3 78
e 195 248
e 167 186
e 19 22
e 24 137
e 10 202
e 84 188
e 170 191
e 63 65
e 1 153
e 54 245
e 128 194
e 188 245
e 40 81
e 45 196
e 119 145
e 31 32
e 108 252
e 121 191
e 140 204
e 10 94
e 63 186
e 54 137
e 40 202
e 114 151
e 155 189
e 7 25
e 12 140
e 17 255
e 72 154
e 158 194
e 70 81
e 89 94
e 130 132
e 176 248
e 28 84
e 148 149
e 167 199
e 19 35
e 5 100
e 65 151
e 51 216
e 63 78
e 49 143
e 82 91
e 68 156
e 128 207
e 169 208
e 21 81
e 40 94
e 81 95
e 141 146
e 172 213
e 144 151
e 130 253
e 28 205
e 146 197
e 5 221
e 79 207
e 32 95
e 63 199
e 21 202
e 95 151
e 40 215
e 81 216
e 114 164
e 7 38
e 155 202
e 53 154
e 72 167
e 158 207
e 218 221
e 70 94
e 56 159
e 9 84
e 47 110
e 148 162
e 5 113
e 46 151
e 32 216
e 151 167
e 51 229
e 192 205
e 211 218
e 49 156
e 2 44
e 21 94
e 7 159
e 81 108
e 67 210
e 141 159
e 39 111
e 125 151
e 111 216
e 144 164
e 37 38
e 9 205
e 102 167
e 14 54
e 146 210
e 5 234
e 32 108
e 16 100
e 21 215
e 62 216
e 136 165
e 81 229
e 48 52
e 20 219
e 53 167
e 6 55
e 92 95
e 218 234
e 56 172
e 9 97
e 14 175
e 41 49
e 27 114
e 13 216
e 132 167
e 32 229
e 25 41
e 192 218
e 44 54
e 16 221
e 2 57
e 7 172
e 48 173
e 106 114
e 6 176
e 39 124
e 92 216
e 4 103
e 9 218
e 50 219
e 83 167
e 124 168
e 36 55
e 27 235
e 118 124
e 30 240
e 145 227
e 164 240
e 16 113
e 2 178
e 62 229
e 48 65
e 221 222
e 6 68
e 4 224
e 18 122
e 92 108
e 97 186
e 224 227
e 36 176
e 69 124
e 8 114
e 27 127
e 113 167
e 173 181
e 25 54
e 11 119
e 16 234
e 24 58
e 236 237
e 84 109
e 48 186
e 106 127
e 6 189
e 4 116
e 64 130
e 124 181
e 17 55
e 36 68
e 8 235
e 27 248
e 228 238
e 99 124
e 38 114
e 2 191
e 43 192
e 84 230
e 98 128
e 10 15
e 15 130
e 1 195
e 161 184
e 106 248
e 54 58
e 221 235
e 240 248
e 18 135
e 4 237
e 45 238
e 64 251
e 224 240
e 17 176
e 36 189
e 96 240
e 3 12
e 8 127
e 94 130
e 66 68
e 24 71
e 10 136
e 29 186
e 43 84
e 84 122
e 235 254
e 1 87
e 87 127
e 73 192
e 45 130
e 31 195
e 64 143
e 3 133
e 22 146
e 8 248
e 75 238
e 108 186
e 209 238
e 80 87
e 121 125
e 167 241
e 79 128
e 24 192
e 84 243
e 101 146
e 1 208
e 128 249
e 142 184
e 54 71
e 161 197
e 40 136
e 73 84
e 45 251
e 31 87
e 17 189
e 72 88
e 3 254
e 91 138
e 75 130
e 61 195
e 94 143
e 80 208
e 121 246
e 135 144
e 176 182
e 52 146
e 179 187
e 5 34
e 46 72
e 49 77
e 216 254
e 109 128
e 54 192
e 128 141
e 73 205
e 147 154
e 188 192
e 67 131
e 12 195
e 86 144
e 3 146
e 130 187
e 209 251
e 121 138
e 126 216
e 167 254
e 19 90
e 5 155
e 24 205
e 65 206
e 63 133
e 82 146
e 68 211
e 21 136
e 40 149
e 26 214
e 246 254
e 72 101
e 144 206
e 77 216
e 56 93
e 42 195
e 116 144
e 9 18
e 176 195
e 28 31
e 33 146
e 19 211
e 32 150
e 63 254
e 51 163
e 65 98
e 156 216
e 238 255
e 49 90
e 54 205
e 95 206
e 21 28
e 114 219
e 7 93
e 67 144
e 53 209
e 72 222
e 39 45
e 56 214
e 130 200
e 165 181
e 190 214
e 9 139
e 107 216
e 60 104
e 5 168
e 65 219
e 13 29
e 151 222
e 32 42
e 63 146
e 51 55
e 49 211
e 123 160
e 16 34
e 21 149
e 7 214
e 81 163
e 141 214
e 53 101
e 144 219
e 56 106
e 83 209
e 116 157
e 9 31
e 157 158
e 28 44
e 160 163
e 27 48
e 32 163
e 30 53
e 16 155
e 95 219
e 136 220
e 7 106
e 48 107
e 34 209
e 134 147
e 53 222
e 172 173
e 72 235
e 20 45
e 37 214
e 56 227
e 4 37
e 171 214
e 212 215
e 9 152
e 83 101
e 41 104
e 27 169
e 46 219
e 113 209
e 146 157
e 25 96
e 151 235
e 44 109
e 49 224
e 145 161
e 16 47
e 2 112
e 7 227
e 48 228
e 81 176
e 208 217
e 227 230
e 125 219
e 185 233
e 4 158
e 157 171
e 96 161
e 201 214
e 60 238
e 8 48
e 27 61
e 25 217
e 11 53
e 178 230
e 219 231
e 57 169
e 2 233
e 2 4
e 136 233
e 48 120
e 139 238
e 1 8
e 6 123
e 92 163
e 78 228
e 4 50
e 97 241
e 23 63
e 212 228
e 196 220
e 55 244
e 215 233
e 8 169
e 27 182
e 173 236
e 145 174
e 90 238
e 38 48
e 57 61
e 2 125
e 84 164
e 103 177
e 48 241
e 208 230
e 15 64
e 20 179
e 6 244
e 166 233
e 18 69
e 4 171
e 78 120
e 119 121
e 64 185
e 124 236
e 17 110
e 36 123
e 41 238
e 8 61
e 140 180
e 85 244
e 11 66
e 219 244
e 38 169
e 112 118
e 2 246
e 76 195
e 117 233
e 115 123
e 120 238
e 161 239
e 1 21
e 73 126
e 6 136
e 18 190
e 45 64
e 64 77
e 17 231
e 36 244
e 196 233
e 3 67
e 8 182
e 173 249
e 214 250
e 71 238
e 167 175
e 186 188
e 38 61
e 24 126
e 84 177
e 189 193
e 230 231
e 1 142
e 73 247
e 106 195
e 207 247
e 18 82
e 100 121
e 45 185
e 64 198
e 124 249
e 17 123
e 3 188
e 163 177
e 182 190
e 121 180
e 38 182
e 24 247
e 184 236
e 82 188
e 161 252
e 54 126
e 73 139
e 18 203
e 174 191
e 26 27
e 45 77
e 31 142
e 17 244
e 3 80
e 135 199
e 195 250
e 47 86
e 88 124
e 167 188
e 24 139
e 65 140
e 63 67
e 230 244
e 68 145
e 1 155
e 54 247
e 128 196
e 21 70
e 147 209
e 40 83
e 45 198
e 86 199
e 12 21
e 3 201
e 77 150
e 130 242
e 75 77
e 74 81
e 19 145
e 93 94
e 98 209
e 225 250
e 63 188
e 101 214
e 21 191
e 54 139
e 40 204
e 155 191
e 7 27
e 26 40
e 12 142
e 72 156
e 177 209
e 70 83
e 130 134
e 88 137
e 74 202
e 148 151
e 19 37
e 5 102
e 65 153
e 151 156
e 51 218
e 192 194
e 63 80
e 49 145
e 128 209
e 21 83
e 7 148
e 40 96
e 26 161
e 81 97
e 86 212
e 213 253
e 144 153
e 89 217
e 130 255
e 93 107
e 5 223
e 146 199
e 13 84
e 32 97
e 63 201
e 16 89
e 21 204
e 40 217
e 81 218
e 7 40
e 67 91
e 53 156
e 72 169
e 158 209
e 218 223
e 56 161
e 157 213
e 9 86
e 129 151
e 148 164
e 5 115
e 13 205
e 32 218
e 25 30
e 132 156
e 151 169
e 192 207
e 49 158
e 2 46
e 7 161
e 81 110
e 67 212
e 34 35
e 172 228
e 37 40
e 9 207
e 28 220
e 14 56
e 60 172
e 5 236
e 146 212
e 99 100
e 32 110
e 164 229
e 16 102
e 2 167
e 76 116
e 136 167
e 81 231
e 122 232
e 48 54
e 53 169
e 199 223
e 6 57
e 37 161
e 56 174
e 9 99
e 96 216
e 8 103
e 27 116
e 132 169
e 32 231
e 44 56
e 30 121
e 16 223
e 71 159
e 76 237
e 150 223
e 2 59
e 103 111
e 134 215
e 122 124
e 6 178
e 166 167
e 4 105
e 9 220
e 64 119
e 124 170
e 17 44
e 143 183
e 36 57
e 27 237
e 99 113
e 118 126
e 145 229
e 38 103
e 2 180
e 117 167
e 6 70
e 4 226
e 18 124
e 224 229
e 36 178
e 110 127
e 8 116
e 27 129
e 154 170
e 233 234
e 11 121
e 24 60
e 236 239
e 43 73
e 84 111
e 103 124
e 48 188
e 194 242
e 235 243
e 6 191
e 18 245
e 4 118
e 45 119
e 64 132
e 105 170
e 124 183
e 17 57
e 3 122
e 36 70
e 22 135
e 8 237
e 108 175
e 27 250
e 127 188
e 168 189
e 209 227
e 145 242
e 186 243
e 24 181
e 98 130
e 43 194
e 84 232
e 103 245
e 10 17
e 1 197
e 161 186
e 106 250
e 54 60
e 221 237
e 18 137
e 4 239
e 45 240
e 205 229
e 64 253
e 12 63
e 224 242
e 17 178
e 91 127
e 36 191
e 77 192
e 3 14
e 22 27
e 121 235
e 154 183
e 66 70
e 57 250
e 24 73
e 65 74
e 10 138
e 84 124
e 216 243
e 1 89
e 87 129
e 73 194
e 128 130
e 45 132
e 3 135
e 77 84
e 22 148
e 149 189
e 42 63
e 209 240
e 80 89
e 121 127
e 107 192
e 167 243
e 79 130
e 24 194
e 84 245
e 63 122
e 1 210
e 128 251
e 54 73
e 40 138
e 45 253
e 205 242
e 12 76
e 17 191
e 58 192
e 72 90
e 77 205
e 135 146
e 80 210
e 121 248
e 176 184
e 195 197
e 19 200
e 5 36
e 65 87
e 10 151
e 63 243
e 137 192
e 156 205
e 49 79
e 68 92
e 54 194
e 109 130
e 73 207
e 128 143
e 86 146
e 72 211
e 58 84
e 89 151
e 130 189
e 28 141
e 88 192
e 5 157
e 46 195
e 65 208
e 79 143
e 63 135
e 49 200
e 68 213
e 35 36
e 21 138
e 40 151
e 81 152
e 26 216
e 53 90
e 72 103
e 144 208
e 56 95
e 116 146
e 9 20
e 135 159
e 146 254
e 179 202
e 5 49
e 46 87
e 32 152
e 197 219
e 49 92
e 90 93
e 21 30
e 7 95
e 67 146
e 53 211
e 72 224
e 20 34
e 39 47
e 70 151
e 56 216
e 23 39
e 9 141
e 190 216
e 102 103
e 14 219
e 47 167
e 148 219
e 5 170
e 65 221
e 13 31
e 151 224
e 32 44
e 49 213
e 16 36
e 35 49
e 21 151
e 7 216
e 81 165
e 141 216
e 53 103
e 144 221
e 56 108
e 83 211
e 9 33
e 41 214
e 160 165
e 201 203
e 27 50
e 32 165
e 44 219
e 159 206
e 178 219
e 197 232
e 16 157
e 90 106
e 95 221
e 48 109
e 53 224
e 6 112
e 37 216
e 39 60
e 56 229
e 4 39
e 171 216
e 9 154
e 129 219
e 215 222
e 148 232
e 27 171
e 151 237
e 71 214
e 145 163
e 16 49
e 2 114
e 7 229
e 48 230
e 208 219
e 15 53
e 6 233
e 18 58
e 4 160
e 97 122
e 124 225
e 157 173
e 143 238
e 36 112
e 96 163
e 160 178
e 201 216
e 8 50
e 27 63
e 25 219
e 118 181
e 159 219
e 219 233
e 71 106
e 16 170
e 57 171
e 2 235
e 222 238
e 15 174
e 48 122
e 134 162
e 6 125
e 37 229
e 4 52
e 45 53
e 97 243
e 64 66
e 36 233
e 110 182
e 108 109
e 8 171
e 27 184
e 113 224
e 85 125
e 57 63
e 2 127
e 43 128
e 84 166
e 48 243
e 122 192
e 1 131
e 6 246
e 18 71
e 4 173
e 45 174
e 64 187
e 124 238
e 17 112
e 36 125
e 163 166
e 8 63
e 66 233
e 99 181
e 200 233
e 219 246
e 112 120
e 2 248
e 98 185
e 131 133
e 203 238
e 10 72
e 101 190
e 1 252
e 161 241
e 1 23
e 73 128
e 18 192
e 152 192
e 45 66
e 64 79
e 17 233
e 36 246
e 110 195
e 3 69
e 8 184
e 154 238
e 214 252
e 66 125
e 167 177
e 186 190
e 38 63
e 24 128
e 84 179
e 29 243
e 189 195
e 230 233
e 1 144
e 128 185
e 73 249
e 40 72
e 207 249
e 45 187
e 64 200
e 105 238
e 17 125
e 3 190
e 163 179
e 182 192
e 80 144
e 121 182
e 24 249
e 184 238
e 203 251
e 244 252
e 161 254
e 202 255
e 54 128
e 73 141
e 59 243
e 100 244
e 26 29
e 31 144
e 17 246
e 91 195
e 70 72
e 3 82
e 195 252
e 167 190
e 5 91
e 24 141
e 65 142
e 170 195
e 63 69
e 54 249
e 128 198
e 21 72
e 147 211
e 40 85
e 12 23
e 191 254
e 3 203
e 89 206
e 130 244
e 61 144
e 47 209
e 121 195
e 181 209
e 19 147
e 32 86
e 63 190
e 137 139
e 183 255
e 21 193
e 95 142
e 40 206
e 114 155
e 7 29
e 26 42
e 12 144
e 53 145
e 72 158
e 56 150
e 42 252
e 130 136
e 9 75
e 135 214
e 5 104
e 65 155
e 10 219
e 151 158
e 192 196
e 63 82
e 49 147
e 150 199
e 21 85
e 7 150
e 81 99
e 141 150
e 86 214
e 39 102
e 144 155
e 89 219
e 204 206
e 9 196
e 42 144
e 28 209
e 83 145
e 162 209
e 14 45
e 60 161
e 5 225
e 146 201
e 165 214
e 32 99
e 63 203
e 16 91
e 21 206
e 81 220
e 7 42
e 34 145
e 53 158
e 139 161
e 72 171
e 56 163
e 116 214
e 9 88
e 129 153
e 160 220
e 27 105
e 113 145
e 32 220
e 25 32
e 51 233
e 44 45
e 151 171
e 192 209
e 16 212
e 49 160
e 90 161
e 2 48
e 169 225
e 7 163
e 48 164
e 81 112
e 153 217
e 34 37
e 39 115
e 4 94
e 23 107
e 9 209
e 36 46
e 96 97
e 41 161
e 60 174
e 5 238
e 146 214
e 25 153
e 99 102
e 145 218
e 16 104
e 2 169
e 117 156
e 81 233
e 122 234
e 48 56
e 34 158
e 120 161
e 6 59
e 92 99
e 157 228
e 50 102
e 69 115
e 160 233
e 8 105
e 27 118
e 13 220
e 25 45
e 71 161
e 16 225
e 35 238
e 2 61
e 43 62
e 84 100
e 122 126
e 6 180
e 92 220
e 111 233
e 4 107
e 64 121
e 124 172
e 17 46
e 143 185
e 36 59
e 22 124
e 8 226
e 55 72
e 27 239
e 228 229
e 99 115
e 2 182
e 84 221
e 29 56
e 15 121
e 120 174
e 161 175
e 221 226
e 18 126
e 4 228
e 64 242
e 224 231
e 243 244
e 17 167
e 50 115
e 36 180
e 8 118
e 94 121
e 154 172
e 52 124
e 71 174
e 57 239
e 131 188
e 24 62
e 84 113
e 175 231
e 194 244
e 1 78
e 73 183
e 6 193
e 18 247
e 106 131
e 45 121
e 64 134
e 124 185
e 17 59
e 58 60
e 3 124
e 8 239
e 27 252
e 209 229
e 61 65
e 167 232
e 79 119
e 24 183
e 84 234
e 103 247
e 82 124
e 1 199
e 161 188
e 54 62
e 73 75
e 4 241
e 45 242
e 100 178
e 64 255
e 12 65
e 31 78
e 17 180
e 3 245
e 36 193
e 163 234
e 3 16
e 182 247
e 75 121
e 94 134
e 80 199
e 121 237
e 33 124
e 24 75
e 65 76
e 216 245
e 68 81
e 1 91
e 54 183
e 73 196
e 128 132
e 45 134
e 86 135
e 31 199
e 91 250
e 58 73
e 3 137
e 77 86
e 130 178
e 94 255
e 42 65
e 209 242
e 121 129
e 167 245
e 19 81
e 24 196
e 65 197
e 98 145
e 10 32
e 63 124
e 82 137
e 1 212
e 128 253
e 21 127
e 54 75
e 40 140
e 100 191
e 45 255
e 12 78
e 72 92
e 77 207
e 163 247
e 42 186
e 121 250
e 195 199
e 74 138
e 93 151
e 5 38
e 65 89
e 63 245
e 49 81
e 109 132
e 54 196
e 128 145
e 7 84
e 72 213
e 89 153
e 130 191
e 234 248
e 5 159
e 65 210
e 151 213
e 192 251
e 32 33
e 63 137
e 49 202
e 123 151
e 109 253
e 16 25
e 35 38
e 21 140
e 7 205
e 40 153
e 26 218
e 81 154
e 141 205
e 53 92
e 72 105
e 144 210
e 37 84
e 56 97
e 61 212
e 9 22
e 28 35
e 74 151
e 60 216
e 5 51
e 13 141
e 32 154
e 51 167
e 197 221
e 16 146
e 49 94
e 90 95
e 7 97
e 53 213
e 72 226
e 20 36
e 39 49
e 56 218
e 9 143
e 28 156
e 69 157
e 88 207
e 129 208
e 148 221
e 146 148
e 5 172
e 132 213
e 151 226
e 32 46
e 44 100
e 104 151
e 49 215
e 90 216
e 164 165
e 16 38
e 2 103
e 35 51
e 7 218
e 81 167
e 144 223
e 56 110
e 157 162
e 9 35
e 160 167
e 201 205
e 8 39
e 27 52
e 13 154
e 32 167
e 71 95
e 16 159
e 90 108
e 2 224
e 150 159
e 48 111
e 134 151
e 120 216
e 53 226
e 20 49
e 6 114
e 111 167
e 56 231
e 4 41
e 152 168
e 23 54
e 9 156
e 212 219
e 8 160
e 27 173
e 71 216
e 145 165
e 38 39
e 2 116
e 29 219
e 62 167
e 48 232
e 227 234
e 6 235
e 18 60
e 4 162
e 185 237
e 97 124
e 138 162
e 124 227
e 36 114
e 55 127
e 127 232
e 8 52
e 27 65
e 219 235
e 2 237
e 203 227
e 48 124
e 139 242
e 1 12
e 6 127
e 18 181
e 59 219
e 92 167
e 4 54
e 45 55
e 133 168
e 64 68
e 105 106
e 152 181
e 36 235
e 110 184
e 196 224
e 3 58
e 22 71
e 8 173
e 94 176
e 27 186
e 108 111
e 154 227
e 66 114
e 30 191
e 145 178
e 38 52
e 24 117
e 57 65
e 43 130
e 84 168
e 48 245
e 1 133
e 6 248
e 147 187
e 207 238
e 18 73
e 4 175
e 45 176
e 59 111
e 64 189
e 124 240
e 17 114
e 36 127
e 77 128
e 22 192
e 121 171
e 33 58
e 219 248
e 24 238
e 10 74
e 101 192
e 1 254
e 161 243
e 1 25
e 54 117
e 73 130
e 18 194
e 133 181
e 174 182
e 193 195
e 45 68
e 17 235
e 36 248
e 237 238
e 3 71
e 22 84
e 195 241
e 214 254
e 33 179
e 107 128
e 52 192
e 167 179
e 186 192
e 198 246
e 24 130
e 10 195
e 84 181
e 170 184
e 1 146
e 54 238
e 73 251
e 128 187
e 188 238
e 40 74
e 45 189
e 31 254
e 17 127
e 58 128
e 3 192
e 77 141
e 22 205
e 80 146
e 107 249
e 140 197
e 52 84
e 184 240
e 225 241
e 63 179
e 82 192
e 54 130
e 40 195
e 73 143
e 100 246
e 7 18
e 114 144
e 26 31
e 67 69
e 155 182
e 31 146
e 17 248
e 58 249
e 72 147
e 174 195
e 177 200
e 193 208
e 61 254
e 176 241
e 28 77
e 195 254
e 88 128
e 33 192
e 167 192
e 5 93
e 65 144
e 63 71
e 49 136
e 82 84
e 68 149
e 54 251
e 109 187
e 128 200
e 21 74
e 40 87
e 81 88
e 26 152
e 70 195
e 130 246
e 61 146
e 88 249
e 93 98
e 5 214
e 146 190
e 225 254
e 32 88
e 63 192
e 137 141
e 21 195
e 95 144
e 40 208
e 155 195
e 7 31
e 26 44
e 12 146
e 53 147
e 67 82
e 72 160
e 70 87
e 56 152
e 9 77
e 135 216
e 47 103
e 93 219
e 5 106
e 46 144
e 32 209
e 65 157
e 151 160
e 192 198
e 49 149
e 35 214
e 169 214
e 21 87
e 7 152
e 81 101
e 141 152
e 172 219
e 125 144
e 144 157
e 9 198
e 42 146
e 83 147
e 74 98
e 5 227
