p edge 255 17286
e 206 217
e 13 88
e 44 155
e 104 206
e 76 107
e 95 157
e 136 158
e 34 147
e 180 201
e 39 225
e 218 227
e 37 152
e 97 166
e 138 204
e 157 217
e 9 90
e 50 91
e 14 168
e 129 155
e 160 222
e 148 168
e 113 147
e 25 34
e 71 150
e 30 112
e 90 163
e 62 101
e 194 220
e 39 117
e 111 222
e 23 109
e 83 160
e 28 224
e 69 225
e 143 174
e 55 61
e 41 163
e 127 166
e 60 176
e 187 217
e 13 101
e 99 104
e 44 168
e 57 107
e 76 120
e 62 222
e 136 171
e 117 158
e 122 236
e 15 110
e 20 225
e 139 176
e 92 101
e 78 166
e 23 230
e 138 217
e 97 179
e 157 230
e 50 104
e 55 182
e 96 220
e 160 235
e 13 222
e 118 238
e 11 112
e 71 163
e 30 125
e 57 228
e 131 177
e 76 241
e 90 176
e 29 166
e 103 115
e 175 220
e 87 107
e 133 223
e 166 171
e 152 236
e 45 110
e 50 225
e 143 187
e 110 239
e 108 166
e 22 126
e 127 179
e 187 230
e 25 168
e 66 169
e 99 117
e 85 182
e 30 246
e 186 234
e 38 107
e 103 236
e 122 249
e 15 123
e 120 176
e 87 228
e 106 241
e 221 228
e 59 166
e 78 179
e 23 243
e 31 67
e 110 131
e 22 247
e 182 236
e 75 110
e 94 123
e 154 174
e 173 187
e 140 239
e 11 125
e 52 126
e 38 228
e 112 177
e 57 241
e 131 190
e 76 254
e 43 77
e 29 179
e 115 182
e 15 244
e 216 234
e 235 247
e 87 120
e 133 236
e 152 249
e 193 250
e 105 174
e 31 188
e 91 239
e 110 252
e 108 179
e 149 180
e 94 244
e 168 193
e 22 139
e 61 67
e 66 182
e 11 246
e 126 196
e 186 247
e 38 120
e 98 134
e 43 198
e 170 239
e 82 126
e 87 241
e 106 254
e 147 255
e 59 179
e 100 180
e 119 193
e 12 67
e 31 80
e 58 183
e 163 236
e 77 196
e 182 249
e 223 250
e 61 188
e 135 137
e 80 201
e 140 252
e 33 126
e 52 139
e 38 241
e 79 242
e 112 190
e 98 255
e 10 142
e 82 247
e 156 196
e 68 83
e 155 237
e 114 199
e 26 86
e 12 188
e 86 137
e 158 242
e 177 255
e 70 129
e 58 75
e 89 142
e 75 244
e 42 67
e 168 206
e 61 80
e 80 93
e 88 183
e 107 196
e 79 134
e 170 252
e 211 253
e 82 139
e 123 140
e 68 204
e 109 242
e 100 193
e 141 194
e 26 207
e 12 80
e 58 196
e 42 188
e 116 137
e 61 201
e 176 188
e 162 253
e 33 139
e 74 140
e 19 204
e 93 153
e 79 255
e 179 193
e 46 78
e 137 196
e 51 156
e 197 210
e 109 134
e 95 199
e 114 212
e 155 250
e 241 253
e 67 137
e 12 201
e 158 255
e 70 142
e 89 155
e 171 194
e 190 207
e 42 80
e 47 158
e 88 196
e 148 210
e 19 96
e 60 97
e 104 140
e 123 153
e 68 217
e 183 204
e 62 143
e 26 220
e 141 207
e 39 159
e 125 199
e 37 86
e 42 201
e 83 202
e 116 150
e 102 215
e 28 37
e 14 102
e 74 153
e 19 217
e 60 218
e 51 169
e 178 210
e 30 46
e 197 223
e 90 97
e 95 212
e 136 213
e 134 140
e 34 202
e 20 38
e 39 51
e 92 143
e 111 156
e 37 207
e 171 207
e 23 43
e 190 220
e 83 94
e 69 159
e 129 210
e 148 223
e 60 110
e 46 212
e 132 215
e 113 202
e 13 35
e 44 102
e 104 153
e 62 156
e 122 170
e 20 159
e 125 212
e 166 213
e 39 172
e 185 226
e 37 99
e 78 100
e 23 164
e 83 215
e 157 164
e 143 229
e 14 115
e 55 116
e 96 154
e 41 218
e 25 210
e 99 159
e 44 223
e 159 210
e 118 172
e 11 46
e 178 223
e 30 59
e 71 97
e 90 110
e 76 175
e 117 213
e 136 226
e 222 229
e 134 153
e 34 215
e 120 218
e 139 231
e 20 51
e 37 220
e 78 221
e 152 170
e 97 234
e 111 169
e 23 56
e 231 234
e 50 159
e 196 213
e 55 237
e 129 223
e 14 236
e 22 60
e 41 110
e 113 215
e 25 102
e 44 115
e 85 116
e 30 180
e 71 218
e 90 231
e 38 41
e 131 232
e 43 119
e 103 170
e 208 223
e 122 183
e 15 57
e 87 162
e 20 172
e 106 175
e 166 226
e 59 100
e 185 239
e 23 177
e 138 164
e 97 126
e 143 242
e 55 129
e 41 231
e 127 234
e 108 221
e 25 223
e 99 172
e 140 173
e 85 237
e 38 162
e 57 175
e 76 188
e 203 229
e 222 242
e 29 113
e 15 178
e 120 231
e 1 14
e 59 221
e 133 170
e 78 234
e 152 183
e 97 247
e 212 234
e 17 224
e 91 173
e 50 172
e 110 186
e 55 250
e 196 226
e 108 113
e 94 178
e 154 229
e 173 242
e 11 180
e 85 129
e 71 231
e 112 232
e 30 193
e 131 245
e 43 132
e 29 234
e 115 237
e 103 183
e 87 175
e 147 189
e 188 227
e 59 113
e 100 114
e 105 229
e 191 232
e 210 245
e 22 194
e 108 234
e 127 247
e 168 248
e 80 135
e 66 237
e 140 186
e 85 250
e 33 60
e 126 251
e 52 73
e 38 175
e 200 237
e 24 240
e 98 189
e 79 176
e 203 242
e 184 229
e 10 76
e 115 129
e 15 191
e 142 232
e 100 235
e 133 183
e 174 184
e 119 248
e 12 122
e 31 135
e 91 186
e 177 189
e 77 251
e 237 240
e 75 178
e 94 191
e 154 242
e 47 79
e 33 181
e 52 194
e 126 143
e 112 245
e 186 194
e 198 248
e 10 197
e 115 250
e 156 251
e 189 199
e 230 237
e 68 138
e 109 176
e 188 240
e 147 202
e 207 253
e 12 243
e 119 140
e 191 245
e 163 183
e 77 143
e 89 197
e 149 248
e 42 122
e 22 207
e 61 135
e 80 148
e 66 250
e 162 187
e 181 200
e 19 138
e 79 189
e 98 202
e 184 242
e 10 89
e 51 90
e 142 245
e 101 207
e 95 133
e 155 184
e 100 248
e 174 197
e 26 33
e 12 135
e 31 148
e 158 189
e 58 251
e 177 202
e 70 76
e 42 243
e 75 191
e 135 205
e 176 243
e 28 79
e 47 92
e 33 194
e 107 143
e 52 207
e 93 208
e 179 248
e 19 30
e 46 133
e 51 211
e 137 251
e 109 189
e 169 203
e 86 205
e 213 246
e 125 133
e 70 197
e 58 143
e 89 210
e 39 93
e 42 135
e 61 148
e 102 149
e 88 251
e 162 200
e 28 200
e 181 213
e 47 213
e 74 87
e 93 100
e 60 152
e 46 254
e 123 208
e 155 197
e 114 159
e 26 46
e 125 254
e 199 203
e 70 89
e 37 141
e 116 205
e 157 206
e 88 143
e 14 157
e 74 208
e 51 224
e 90 152
e 150 203
e 62 90
e 67 205
e 172 221
e 39 106
e 70 210
e 111 211
e 23 98
e 83 149
e 28 213
e 102 162
e 143 163
e 47 226
e 41 152
e 60 165
e 187 206
e 13 90
e 44 157
e 104 208
e 123 221
e 164 222
e 35 108
e 76 109
e 62 211
e 117 147
e 34 149
e 120 152
e 139 165
e 39 227
e 180 203
e 37 154
e 138 206
e 97 168
e 50 93
e 69 106
e 14 170
e 55 171
e 129 157
e 113 149
e 13 211
e 132 162
e 118 227
e 11 101
e 71 152
e 30 114
e 90 165
e 35 229
e 76 230
e 62 103
e 103 104
e 134 208
e 29 155
e 153 221
e 194 222
e 20 106
e 92 211
e 111 224
e 23 111
e 83 162
e 69 227
e 41 165
e 127 168
e 206 232
e 25 157
e 44 170
e 85 171
e 30 235
e 164 235
e 38 96
e 117 160
e 62 224
e 136 173
e 29 47
e 15 112
e 120 165
e 20 227
e 106 230
e 39 240
e 139 178
e 92 103
e 59 155
e 78 168
e 23 232
e 97 181
e 50 106
e 110 120
e 96 222
e 55 184
e 94 112
e 113 162
e 13 224
e 154 163
e 173 176
e 118 240
e 30 127
e 71 165
e 57 230
e 76 243
e 43 66
e 29 168
e 175 222
e 194 235
e 235 236
e 1 69
e 87 109
e 92 224
e 166 173
e 133 225
e 152 238
e 45 112
e 105 163
e 69 240
e 110 241
e 108 168
e 127 181
e 168 182
e 25 170
e 11 235
e 85 184
e 30 248
e 186 236
e 38 109
e 57 122
e 98 123
e 189 241
e 122 251
e 15 125
e 87 230
e 106 243
e 221 230
e 59 168
e 78 181
e 205 222
e 119 182
e 224 235
e 31 69
e 91 120
e 110 133
e 163 225
e 77 185
e 22 249
e 75 112
e 94 125
e 154 176
e 99 240
e 140 241
e 33 115
e 57 243
e 98 244
e 43 79
e 10 131
e 115 184
e 15 246
e 175 235
e 101 249
e 54 174
e 193 252
e 105 176
e 91 241
e 89 131
e 108 181
e 149 182
e 22 141
e 94 246
e 61 69
e 66 184
e 11 248
e 107 185
e 126 198
e 52 249
e 186 249
e 79 123
e 98 136
e 10 252
e 43 200
e 170 241
e 189 254
e 10 23
e 142 179
e 87 243
e 101 141
e 100 182
e 205 235
e 31 82
e 58 185
e 77 198
e 204 239
e 223 252
e 116 126
e 61 190
e 135 139
e 80 203
e 140 254
e 181 255
e 19 193
e 38 243
e 52 141
e 79 244
e 93 142
e 46 67
e 137 185
e 82 249
e 156 198
e 68 85
e 109 123
e 114 201
e 174 252
e 26 88
e 67 126
e 86 139
e 31 203
e 158 244
e 12 190
e 70 131
e 58 77
e 75 246
e 190 196
e 42 69
e 61 82
e 88 185
e 47 147
e 107 198
e 126 211
e 19 85
e 79 136
e 211 255
e 82 141
e 123 142
e 68 206
e 183 193
e 109 244
e 67 247
e 246 249
e 12 82
e 58 198
e 70 252
e 42 190
e 116 139
e 61 203
e 102 204
e 176 190
e 135 152
e 162 255
e 14 91
e 74 142
e 19 206
e 93 155
e 5 42
e 46 80
e 65 93
e 137 198
e 51 158
e 156 211
e 35 150
e 68 98
e 109 136
e 95 201
e 155 252
e 241 255
e 67 139
e 26 101
e 12 203
e 171 196
e 28 147
e 88 198
e 129 199
e 47 160
e 234 252
e 14 212
e 41 86
e 60 99
e 46 201
e 104 142
e 123 155
e 26 222
e 34 83
e 125 201
e 226 253
e 37 88
e 185 215
e 42 203
e 83 204
e 9 26
e 102 217
e 14 104
e 41 207
e 60 220
e 44 212
e 159 199
e 51 171
e 178 212
e 30 48
e 90 99
e 136 215
e 139 220
e 111 158
e 56 222
e 97 223
e 23 45
e 50 148
e 83 96
e 14 225
e 129 212
e 148 225
e 41 99
e 60 112
e 113 204
e 132 217
e 151 230
e 25 91
e 44 104
e 30 169
e 104 155
e 90 220
e 164 169
e 16 42
e 71 207
e 62 158
e 103 159
e 15 46
e 34 96
e 39 174
e 166 215
e 185 228
e 23 166
e 138 153
e 83 217
e 157 166
e 143 231
e 96 156
e 41 220
e 127 223
e 160 171
e 13 158
e 25 212
e 44 225
e 159 212
e 178 225
e 30 61
e 90 112
e 57 164
e 76 177
e 117 215
e 136 228
e 222 231
e 29 102
e 134 155
e 34 217
e 120 220
e 37 222
e 133 159
e 152 172
e 97 236
e 212 223
e 231 236
e 69 174
e 110 175
e 196 215
e 215 228
e 113 217
e 173 231
e 25 104
e 66 105
e 11 169
e 85 118
e 71 220
e 30 182
e 38 43
e 131 234
e 29 223
e 103 172
e 15 59
e 87 164
e 166 228
e 207 229
e 59 102
e 78 115
e 23 179
e 105 218
e 143 244
e 55 131
e 108 223
e 127 236
e 96 169
e 25 225
e 66 226
e 140 175
e 85 239
e 200 226
e 99 174
e 52 62
e 57 177
e 184 218
e 76 190
e 203 231
e 43 242
e 222 244
e 29 115
e 15 180
e 59 223
e 133 172
e 78 236
e 152 185
e 119 237
e 91 175
e 110 188
e 55 252
e 108 115
e 22 75
e 94 180
e 154 231
e 173 244
e 66 118
e 11 182
e 52 183
e 126 132
e 112 234
e 131 247
e 43 134
e 29 236
e 115 239
e 87 177
e 188 229
e 147 191
e 207 242
e 119 129
e 105 231
e 191 234
e 210 247
e 58 119
e 163 172
e 22 196
e 149 237
e 77 132
e 168 250
e 182 185
e 80 137
e 66 239
e 85 252
e 33 62
e 200 239
e 52 75
e 126 253
e 112 126
e 79 178
e 98 191
e 43 255
e 184 231
e 10 78
e 82 183
e 15 193
e 115 131
e 142 234
e 202 248
e 59 236
e 100 237
e 174 186
e 119 250
e 114 135
e 31 137
e 158 178
e 91 188
e 177 191
e 77 253
e 237 242
e 58 240
e 75 180
e 94 193
e 176 232
e 135 194
e 61 245
e 88 119
e 33 183
e 107 132
e 52 196
e 179 237
e 112 247
e 198 250
e 10 199
e 170 188
e 115 252
e 156 253
e 109 178
e 68 140
e 188 242
e 147 204
e 26 143
e 12 245
e 86 194
e 100 129
e 58 132
e 3 196
e 89 199
e 149 250
e 61 137
e 88 240
e 80 150
e 107 253
e 181 202
e 33 75
e 162 189
e 19 140
e 47 202
e 79 191
e 165 194
e 225 245
e 51 92
e 82 196
e 183 248
e 155 186
e 100 250
e 174 199
e 141 251
e 26 35
e 12 137
e 114 148
e 158 191
e 58 253
e 177 204
e 42 245
e 116 194
e 176 245
e 88 132
e 33 196
e 74 197
e 47 94
e 93 210
e 46 135
e 10 212
e 137 253
e 51 213
e 109 191
e 68 153
e 169 205
e 62 79
e 67 194
e 26 156
e 86 207
e 172 210
e 125 135
e 70 199
e 39 95
e 89 212
e 171 251
e 42 137
e 83 138
e 88 253
e 162 202
e 47 215
e 74 89
e 19 153
e 60 154
e 165 207
e 13 79
e 104 197
e 51 105
e 123 210
e 35 97
e 21 199
e 95 148
e 136 149
e 34 138
e 199 205
e 37 143
e 116 207
e 157 208
e 28 94
e 69 95
e 74 210
e 201 251
e 160 213
e 148 159
e 113 138
e 46 148
e 13 200
e 35 218
e 150 205
e 169 218
e 62 92
e 134 197
e 153 210
e 172 223
e 20 95
e 39 108
e 111 213
e 23 100
e 28 215
e 102 164
e 143 165
e 14 51
e 41 154
e 187 208
e 206 221
e 44 159
e 104 210
e 123 223
e 164 224
e 57 98
e 117 149
e 62 213
e 136 162
e 76 111
e 122 227
e 120 154
e 39 229
e 199 218
e 37 156
e 78 157
e 23 221
e 138 208
e 97 170
e 50 95
e 69 108
e 14 172
e 129 159
e 55 173
e 160 226
e 96 211
e 113 151
e 118 229
e 44 51
e 11 103
e 71 154
e 30 116
e 35 231
e 76 232
e 131 168
e 43 55
e 103 106
e 194 224
e 20 108
e 92 213
e 111 226
e 152 227
e 23 113
e 105 152
e 50 216
e 69 229
e 143 178
e 108 157
e 127 170
e 187 221
e 25 159
e 99 108
e 11 224
e 85 173
e 30 237
e 38 98
e 57 111
e 43 176
e 62 226
e 103 227
e 117 162
e 122 240
e 15 114
e 20 229
e 59 157
e 205 211
e 138 221
e 23 234
e 17 160
e 50 108
e 110 122
e 55 186
e 182 227
e 94 114
e 99 229
e 173 178
e 118 242
e 11 116
e 131 181
e 76 245
e 43 68
e 29 170
e 115 173
e 15 235
e 175 224
e 194 237
e 1 71
e 133 227
e 152 240
e 105 165
e 50 229
e 91 230
e 110 243
e 108 170
e 127 183
e 168 184
e 94 235
e 228 235
e 66 173
e 11 237
e 85 186
e 126 187
e 30 250
e 98 125
e 43 189
e 189 243
e 82 117
e 15 127
e 142 168
e 87 232
e 106 245
e 147 246
e 100 171
e 119 184
e 224 237
e 31 71
e 91 122
e 77 187
e 22 251
e 182 240
e 75 114
e 94 127
e 140 243
e 38 232
e 112 181
e 57 245
e 98 246
e 10 133
e 115 186
e 15 248
e 101 251
e 156 187
e 109 112
e 68 74
e 133 240
e 174 241
e 12 179
e 91 243
e 177 246
e 58 66
e 89 133
e 75 235
e 22 143
e 94 248
e 42 58
e 168 197
e 61 71
e 66 186
e 107 187
e 52 251
e 126 200
e 19 74
e 79 125
e 98 138
e 10 254
e 170 243
e 10 25
e 101 143
e 87 245
e 142 181
e 100 184
e 86 249
e 119 197
e 12 71
e 58 187
e 163 240
e 77 200
e 204 241
e 223 254
e 42 179
e 75 127
e 135 141
e 80 205
e 74 131
e 179 184
e 79 246
e 46 69
e 51 147
e 82 251
e 137 187
e 68 87
e 95 190
e 114 203
e 155 241
e 174 254
e 31 205
e 158 246
e 58 79
e 89 146
e 75 248
e 149 197
e 116 249
e 42 71
e 190 198
e 28 136
e 47 149
e 33 251
e 88 187
e 148 201
e 19 87
e 60 88
e 65 203
e 104 131
e 123 144
e 109 246
e 68 208
e 202 208
e 26 211
e 67 249
e 141 198
e 246 251
e 70 254
e 58 200
e 37 77
e 204 254
e 116 141
e 61 205
e 102 206
e 14 93
e 74 144
e 179 197
e 51 160
e 178 201
e 35 152
e 95 203
e 155 254
e 67 141
e 26 103
e 53 206
e 34 193
e 39 42
e 37 198
e 111 147
e 171 198
e 190 211
e 28 149
e 47 162
e 234 254
e 41 88
e 60 101
e 46 203
e 132 206
e 13 26
e 44 93
e 123 157
e 35 44
e 62 147
e 26 224
e 141 211
e 34 85
e 39 163
e 125 203
e 185 217
e 37 90
e 226 255
e 23 155
e 83 206
e 143 220
e 14 106
e 55 107
e 41 209
e 60 222
e 13 147
e 118 163
e 159 201
e 11 37
e 30 50
e 197 227
e 71 88
e 35 165
e 76 166
e 150 152
e 117 204
e 29 91
e 34 206
e 139 222
e 20 42
e 92 147
e 37 211
e 111 160
e 171 211
e 23 47
e 50 150
e 69 163
e 14 227
e 215 217
e 41 101
e 113 206
e 173 220
e 25 93
e 44 106
e 85 107
e 71 209
e 30 171
e 90 222
e 164 171
e 62 160
e 29 212
e 122 174
e 20 163
e 106 166
e 166 217
e 59 91
e 185 230
e 78 104
e 23 168
e 97 117
e 55 120
e 96 158
e 201 211
e 127 225
e 41 222
e 44 227
e 85 228
e 118 176
e 11 50
e 200 215
e 71 101
e 57 166
e 76 179
e 203 220
e 136 230
e 117 217
e 29 104
e 15 169
e 120 222
e 139 235
e 92 160
e 78 225
e 152 174
e 69 176
e 196 217
e 55 241
e 110 177
e 154 220
e 25 106
e 66 107
e 11 171
e 71 222
e 112 223
e 30 184
e 131 236
e 43 123
e 29 225
e 103 174
e 15 61
e 87 166
e 106 179
e 59 104
e 78 117
e 105 220
e 210 236
e 77 121
e 22 185
e 108 225
e 168 239
e 80 126
e 66 228
e 140 177
e 85 241
e 200 228
e 25 227
e 57 179
e 184 220
e 43 244
e 115 120
e 15 182
e 101 185
e 59 225
e 133 174
e 119 239
e 31 126
e 91 177
e 196 230
e 110 190
e 108 117
e 22 77
e 75 169
e 94 182
e 66 120
e 11 184
e 52 185
e 126 134
e 112 236
e 198 239
e 131 249
e 10 188
e 43 136
e 87 179
e 147 193
e 188 231
e 207 244
e 119 131
e 31 247
e 191 236
e 210 249
e 77 134
e 22 198
e 149 239
e 163 174
e 61 126
e 66 241
e 107 242
e 181 191
e 140 190
e 126 255
e 52 77
e 79 180
e 98 193
e 225 234
e 10 80
e 82 185
e 101 198
e 142 236
e 155 175
e 100 239
e 114 137
e 119 252
e 12 126
e 31 139
e 17 241
e 158 180
e 177 193
e 77 255
e 58 242
e 237 244
e 75 182
e 61 247
e 135 196
e 176 234
e 28 70
e 33 185
e 107 134
e 52 198
e 126 147
e 179 239
e 198 252
e 93 199
e 170 190
e 137 242
e 156 255
e 49 129
e 109 180
e 68 142
e 147 206
e 100 131
e 12 247
e 67 183
e 191 249
e 70 188
e 3 198
e 58 134
e 149 252
e 190 253
e 61 139
e 102 140
e 88 242
e 162 191
e 107 255
e 47 204
e 19 142
e 79 193
e 165 196
e 225 247
e 51 94
e 82 198
e 123 199
e 183 250
e 35 86
e 155 188
e 100 252
e 114 150
e 141 253
e 12 139
e 158 193
e 58 255
e 70 80
e 42 247
e 116 196
e 176 247
e 28 83
e 14 148
e 33 198
e 88 134
e 47 96
e 179 252
e 93 212
e 60 163
e 74 199
e 220 253
e 65 150
e 137 255
e 51 215
e 35 207
e 68 155
e 109 193
e 169 207
e 21 80
e 67 196
e 153 199
e 26 158
e 172 212
e 213 250
e 39 97
e 125 137
e 70 201
e 171 253
e 83 140
e 28 204
e 102 153
e 47 217
e 162 204
e 41 143
e 60 156
e 206 210
e 247 248
e 44 148
e 104 199
e 123 212
e 95 150
e 62 202
e 34 140
e 180 194
e 39 218
e 139 156
e 97 159
e 157 210
e 9 83
e 74 212
e 160 215
e 201 253
e 113 140
e 13 202
e 132 153
e 118 218
e 51 228
e 71 143
e 30 105
e 90 156
e 35 220
e 150 207
e 62 94
e 48 159
e 153 212
e 172 225
e 20 97
e 125 150
e 92 202
e 111 215
e 23 102
e 83 153
e 28 217
e 69 218
e 41 156
e 127 159
e 60 169
e 187 210
e 13 94
e 25 148
e 30 226
e 164 226
e 57 100
e 76 113
e 136 164
e 29 38
e 122 229
e 34 153
e 120 156
e 20 218
e 139 169
e 180 207
e 37 158
e 23 223
e 138 210
e 97 172
e 157 223
e 50 97
e 69 110
e 55 175
e 96 213
e 160 228
e 113 153
e 13 215
e 99 218
e 118 231
e 11 105
e 30 118
e 90 169
e 131 170
e 76 234
e 57 221
e 103 108
e 134 212
e 175 213
e 87 100
e 92 215
e 111 228
e 152 229
e 105 154
e 50 218
e 69 231
e 143 180
e 110 232
e 108 159
e 55 67
e 22 119
e 127 172
e 187 223
e 99 110
e 66 162
e 85 175
e 30 239
e 164 239
e 38 100
e 43 178
e 29 51
e 15 116
e 87 221
e 20 231
e 59 159
e 78 172
e 23 236
e 119 173
e 31 60
e 91 111
e 22 240
e 55 188
e 182 229
e 75 103
e 94 116
e 99 231
e 140 232
e 173 180
e 11 118
e 52 119
e 38 221
e 112 170
e 57 234
e 131 183
e 76 247
e 43 70
e 29 172
e 115 175
e 15 237
e 175 226
e 87 113
e 133 229
e 152 242
e 193 243
e 31 181
e 50 231
e 91 232
e 110 245
e 94 237
e 66 175
e 11 239
e 52 240
e 186 240
e 38 113
e 79 114
e 98 127
e 43 191
e 170 232
e 103 242
e 82 119
e 101 132
e 87 234
e 106 247
e 54 57
e 147 248
e 100 173
e 119 186
e 205 226
e 58 176
e 77 189
e 163 229
e 182 242
e 223 243
e 22 253
e 61 181
e 94 129
e 140 245
e 33 119
e 52 132
e 38 234
e 79 235
e 112 183
e 98 248
e 10 135
e 82 240
e 115 188
e 156 189
e 15 250
e 101 253
e 109 114
e 235 253
e 133 242
e 174 243
e 26 79
e 12 181
e 91 245
e 58 68
e 89 135
e 75 237
e 149 186
e 94 250
e 42 60
e 168 199
e 88 176
e 47 138
e 52 253
e 126 202
e 19 76
e 186 253
e 170 245
e 68 197
e 109 235
e 142 183
e 183 184
e 100 186
e 86 251
e 58 189
e 77 202
e 42 181
e 61 194
e 121 245
e 80 207
e 33 132
e 74 133
e 79 248
e 165 251
e 46 71
e 10 148
e 51 149
e 137 189
e 156 202
e 197 203
e 49 76
e 82 253
e 68 89
e 114 205
e 155 243
e 26 92
e 12 194
e 86 143
e 158 248
e 70 135
e 89 148
e 75 250
e 116 251
e 190 200
e 28 138
e 88 189
e 33 253
e 74 254
e 148 203
e 234 243
e 19 89
e 60 90
e 151 208
e 104 133
e 68 210
e 109 248
e 183 197
e 67 251
e 26 213
e 141 200
e 34 74
e 39 152
e 37 79
e 42 194
e 116 143
e 102 208
e 19 210
e 60 211
e 93 159
e 13 136
e 137 202
e 104 254
e 30 39
e 35 154
e 136 206
e 139 211
e 20 31
e 39 44
e 92 136
e 37 200
e 111 149
e 171 200
e 190 213
e 69 152
e 129 203
e 41 90
e 60 103
e 46 205
e 25 82
e 44 95
e 90 211
e 62 149
e 7 213
e 134 254
e 122 163
e 34 87
e 20 152
e 125 205
e 166 206
e 78 93
e 23 157
e 97 106
e 83 208
e 102 221
e 14 108
e 55 109
e 96 147
e 41 211
e 60 224
e 25 203
e 13 149
e 99 152
e 118 165
e 11 39
e 30 52
e 16 154
e 71 90
e 90 103
e 76 168
e 117 206
e 34 208
e 120 211
e 139 224
e 92 149
e 37 213
e 111 162
e 152 163
e 50 152
e 69 165
e 196 206
e 14 229
e 41 103
e 132 221
e 173 222
e 25 95
e 11 160
e 71 211
e 30 173
e 90 224
e 131 225
e 43 112
e 103 163
e 122 176
e 15 50
e 20 165
e 106 168
e 185 232
e 59 93
e 23 170
e 105 209
e 97 119
e 138 157
e 143 235
e 55 122
e 41 224
e 127 227
e 99 165
e 44 229
e 118 178
e 85 230
e 76 181
e 29 106
e 15 171
e 120 224
e 133 163
e 78 227
e 97 240
e 212 227
e 91 166
e 110 179
e 55 243
e 94 171
e 154 222
e 173 235
e 66 109
e 11 173
e 85 122
e 30 186
e 43 125
e 29 227
e 103 176
e 115 230
e 87 168
e 106 181
e 147 182
e 188 220
e 100 107
e 119 120
e 105 222
e 191 225
e 108 227
e 22 187
e 127 240
e 168 241
e 66 230
e 85 243
e 200 230
e 52 66
e 38 168
e 57 181
e 184 222
e 43 246
e 98 182
e 10 69
e 15 184
e 142 225
e 101 187
e 73 125
e 174 177
e 119 241
e 12 115
e 91 179
e 77 244
e 75 171
e 94 184
e 154 235
e 80 249
e 33 174
e 52 187
e 126 136
e 198 241
e 10 190
e 170 179
e 156 244
e 68 131
e 87 181
e 207 246
e 100 120
e 119 133
e 31 249
e 86 185
e 210 251
e 163 176
e 77 136
e 149 241
e 22 200
e 168 254
e 89 190
e 42 115
e 80 141
e 66 243
e 107 244
e 181 193
e 33 66
e 79 182
e 184 235
e 225 236
e 244 249
e 10 82
e 51 83
e 101 200
e 183 239
e 95 126
e 114 139
e 100 241
e 155 177
e 119 254
e 58 244
e 75 184
e 116 185
e 61 249
e 176 236
e 47 85
e 88 123
e 107 136
e 19 252
e 93 201
e 179 241
e 52 200
e 33 187
e 46 126
e 65 139
e 10 203
e 137 244
e 51 204
e 169 196
e 21 69
e 26 147
e 12 249
e 67 185
e 213 239
e 172 201
e 232 252
e 58 136
e 70 190
e 89 203
e 149 254
e 28 193
e 102 142
e 47 206
e 88 244
e 162 193
e 14 29
e 61 141
e 74 80
e 181 206
e 79 195
e 165 198
e 46 247
e 13 70
e 51 96
e 82 200
e 123 201
e 183 252
e 35 88
e 95 139
e 155 190
e 114 152
e 141 255
e 26 39
e 34 129
e 67 77
e 125 247
e 37 134
e 70 82
e 42 249
e 116 198
e 88 136
e 14 150
e 74 201
e 179 254
e 220 255
e 46 139
e 132 142
e 51 217
e 150 196
e 62 83
e 67 198
e 153 201
e 26 160
e 213 252
e 141 147
e 20 86
e 125 139
e 39 99
e 111 204
e 70 203
e 23 91
e 83 142
e 28 206
e 102 155
e 143 156
e 60 158
e 165 211
e 206 212
e 247 250
e 13 83
e 44 150
e 164 215
e 35 101
e 76 102
e 62 204
e 117 140
e 34 142
e 180 196
e 39 220
e 199 209
e 37 147
e 138 199
e 50 86
e 69 99
e 14 163
e 55 164
e 129 150
e 113 142
e 13 204
e 132 155
e 118 220
e 30 107
e 90 158
e 35 222
e 150 209
e 76 223
e 29 148
e 62 96
e 134 201
e 20 99
e 39 112
e 111 217
e 23 104
e 83 155
e 50 207
e 69 220
e 55 56
e 41 158
e 187 212
e 206 225
e 25 150
e 44 163
e 85 164
e 30 228
e 145 215
e 38 89
e 57 102
e 117 153
e 62 217
e 103 218
e 136 166
e 122 231
e 15 105
e 120 158
e 20 220
e 106 223
e 92 96
e 59 148
e 23 225
e 138 212
e 97 174
e 110 113
e 55 177
e 96 215
e 160 230
e 113 155
e 13 217
e 99 220
e 25 42
e 11 107
e 71 158
e 112 159
e 57 223
e 30 120
e 76 236
e 131 172
e 115 164
e 15 226
e 175 215
e 194 228
e 106 115
e 92 217
e 133 218
e 152 231
e 105 156
e 50 220
e 110 234
e 127 174
e 25 163
e 66 164
e 11 228
e 85 177
e 30 241
e 186 229
e 57 115
e 98 116
e 43 180
e 189 234
e 122 244
e 101 121
e 87 223
e 106 236
e 78 174
e 205 215
e 31 62
e 17 164
e 91 113
e 77 178
e 22 242
e 75 105
e 154 169
e 140 234
e 11 120
e 52 121
e 38 223
e 112 172
e 57 236
e 98 237
e 131 185
e 115 177
e 15 239
e 175 228
e 235 242
e 1 75
e 133 231
e 152 244
e 193 245
e 31 183
e 91 234
e 110 247
e 75 226
e 149 175
e 94 239
e 168 188
e 108 174
e 228 239
e 66 177
e 11 241
e 52 242
e 126 191
e 107 178
e 79 116
e 98 129
e 10 245
e 43 193
e 10 16
e 189 247
e 101 134
e 142 172
e 87 236
e 147 250
e 100 175
e 205 228
e 119 188
e 12 62
e 17 177
e 58 178
e 163 231
e 77 191
e 182 244
e 223 245
e 75 118
e 61 183
e 80 196
e 140 247
e 181 248
e 52 134
e 93 135
e 79 237
e 38 236
e 98 250
e 10 137
e 137 178
e 82 242
e 156 191
e 101 255
e 109 116
e 68 78
e 235 255
e 155 232
e 114 194
e 174 245
e 67 119
e 12 183
e 86 132
e 158 237
e 91 247
e 177 250
e 89 137
e 75 239
e 149 188
e 94 252
e 42 62
e 135 253
e 61 75
e 88 178
e 47 140
e 107 191
e 33 242
e 126 204
e 52 255
e 19 78
e 46 181
e 79 129
e 170 247
e 211 248
e 82 134
e 123 135
e 68 199
e 183 186
e 26 202
e 67 240
e 86 253
e 12 75
e 70 245
e 58 191
e 204 245
e 42 183
e 116 132
e 61 196
e 102 197
e 162 248
e 74 135
e 19 199
e 179 188
e 93 148
e 165 253
e 79 250
e 82 255
e 156 204
e 35 143
e 68 91
e 95 194
e 109 129
e 155 245
e 114 207
e 67 132
e 26 94
e 12 196
e 158 250
e 70 137
e 89 150
e 171 189
e 116 253
e 23 25
e 9 127
e 42 75
e 190 202
e 88 191
e 47 153
e 33 255
e 234 245
e 148 205
e 41 79
e 60 92
e 46 194
e 104 135
e 123 148
e 150 251
e 183 199
e 62 138
e 26 215
e 141 202
e 67 253
e 34 76
e 125 194
e 39 154
e 185 208
e 83 197
e 9 19
e 102 210
e 14 97
e 74 148
e 13 138
e 118 154
e 178 205
e 30 41
e 197 218
e 35 156
e 136 208
e 34 197
e 180 251
e 139 213
e 37 202
e 171 202
e 83 89
e 28 153
e 69 154
e 14 218
e 129 205
e 148 218
e 41 92
e 60 105
e 113 197
e 132 210
e 13 30
e 44 97
e 30 162
e 104 148
e 90 213
e 71 200
e 7 215
e 122 165
e 34 89
e 20 154
e 125 207
e 166 208
e 185 221
e 37 94
e 23 159
e 97 108
e 83 210
e 143 224
e 96 149
e 41 213
e 55 111
e 60 226
e 25 205
e 99 154
e 44 218
e 159 205
e 11 41
e 178 218
e 90 105
e 57 157
e 76 170
e 117 208
e 136 221
e 222 224
e 29 95
e 34 210
e 120 213
e 139 226
e 37 215
e 111 164
e 152 165
e 97 229
e 50 154
e 110 168
e 55 232
e 196 208
e 215 221
e 22 55
e 113 210
e 154 211
e 173 224
e 25 97
e 11 162
e 85 111
e 30 175
e 90 226
e 164 175
e 131 227
e 43 114
e 103 165
e 208 218
e 122 178
e 15 52
e 87 157
e 166 221
e 59 95
e 78 108
e 23 172
e 105 211
e 143 237
e 22 176
e 96 162
e 127 229
e 85 232
e 38 157
e 57 170
e 184 211
e 76 183
e 203 224
e 117 221
e 222 237
e 29 108
e 15 173
e 120 226
e 78 229
e 152 178
e 31 117
e 91 168
e 196 221
e 55 245
e 22 68
e 94 173
e 154 224
e 11 175
e 52 176
e 112 227
e 131 240
e 29 229
e 115 232
e 103 178
e 87 170
e 106 183
e 188 222
e 147 184
e 59 108
e 100 109
e 119 122
e 105 224
e 191 227
e 210 240
e 58 112
e 22 189
e 149 230
e 108 229
e 168 243
e 66 232
e 140 181
e 85 245
e 33 55
e 126 246
e 52 68
e 38 170
e 79 171
e 184 224
e 43 248
e 203 237
e 98 184
e 10 71
e 82 176
e 15 186
e 142 227
e 202 241
e 18 191
e 59 229
e 174 179
e 77 246
e 75 173
e 94 186
e 135 187
e 80 251
e 47 74
e 33 176
e 107 125
e 52 189
e 126 138
e 179 230
e 170 181
e 115 245
e 230 232
e 189 194
e 156 246
e 68 133
e 109 171
e 147 197
e 188 235
e 100 122
e 86 187
e 31 251
e 191 240
e 232 241
e 58 125
e 77 138
e 149 243
e 42 117
e 80 143
e 162 182
e 107 246
e 33 68
e 19 133
e 79 184
e 24 248
e 165 187
e 244 251
e 51 85
e 82 189
e 68 254
e 101 202
e 183 241
e 202 254
e 21 179
e 142 240
e 114 141
e 53 131
e 158 184
e 58 246
e 177 197
e 70 71
e 75 186
e 116 187
e 61 251
e 135 200
e 28 74
e 88 125
e 47 87
e 33 189
e 19 254
e 93 203
e 107 138
e 19 25
e 74 190
e 10 205
e 137 246
e 51 206
e 49 133
e 109 184
e 95 249
e 169 198
e 26 149
e 12 251
e 86 200
e 172 203
e 67 187
e 232 254
e 39 88
e 89 205
e 171 244
e 83 131
e 88 246
e 47 208
e 181 208
e 60 147
e 46 249
e 165 200
e 225 251
e 123 203
e 95 141
e 158 197
e 125 249
e 37 136
e 116 200
e 28 87
e 69 88
e 14 152
e 129 139
e 74 203
e 148 152
e 160 206
e 201 244
e 113 131
e 46 141
e 13 193
e 90 147
e 35 211
e 150 198
e 169 211
e 62 85
e 67 200
e 153 203
e 34 252
e 213 254
e 20 88
e 39 101
e 70 205
e 125 141
e 23 93
e 28 208
e 102 157
e 14 44
e 41 147
e 60 160
e 187 201
e 247 252
e 13 85
e 44 152
e 104 203
e 164 217
e 35 103
e 117 142
e 62 206
e 136 155
e 122 220
e 120 147
e 139 160
e 39 222
e 199 211
e 180 198
e 37 149
e 138 201
e 97 163
e 50 88
e 14 165
e 129 152
e 96 204
e 13 206
e 132 157
e 118 222
e 11 96
e 71 147
e 30 109
e 90 160
e 150 211
e 76 225
e 29 150
e 134 203
e 20 101
e 152 220
e 23 106
e 69 222
e 55 58
e 41 160
e 127 163
e 108 150
e 25 152
e 11 217
e 44 165
e 85 166
e 30 230
e 38 91
e 164 230
e 76 117
e 103 220
e 29 42
e 15 107
e 20 222
e 106 225
e 59 150
e 78 163
e 23 227
e 50 101
e 91 102
e 110 115
e 96 217
e 55 179
e 182 220
e 99 222
e 118 235
e 11 109
e 71 160
e 30 122
e 38 212
e 43 61
e 29 163
e 103 112
e 115 166
e 175 217
e 15 228
e 106 117
e 133 220
e 105 158
e 50 222
e 91 223
e 108 163
e 22 123
e 94 228
e 168 177
e 127 176
e 66 166
e 11 230
e 85 179
e 126 180
e 30 243
e 186 231
e 38 104
e 57 117
e 98 118
e 43 182
e 15 120
e 101 123
e 87 225
e 221 225
e 59 163
e 205 217
e 119 177
e 163 220
e 22 244
e 77 180
e 94 120
e 140 236
e 33 110
e 52 123
e 38 225
e 112 174
e 98 239
e 10 126
e 15 241
e 175 230
e 235 244
e 1 77
e 174 234
e 31 185
e 91 236
e 177 239
e 89 126
e 22 136
e 75 228
e 94 241
e 42 51
e 168 190
e 33 231
e 107 180
e 66 179
e 126 193
e 19 67
e 186 244
e 79 118
e 98 131
e 10 247
e 170 236
e 189 249
e 82 123
e 101 136
e 147 252
e 100 177
e 119 190
e 86 242
e 31 77
e 58 180
e 77 193
e 204 234
e 89 247
e 75 120
e 42 172
e 61 185
e 121 236
e 80 198
e 140 249
e 181 250
e 33 123
e 19 188
e 52 136
e 79 239
e 93 137
e 98 252
e 10 139
e 51 140
e 137 180
e 156 193
e 82 244
e 68 80
e 95 183
e 114 196
e 155 234
e 174 247
e 12 185
e 86 134
e 31 198
e 158 239
e 177 252
e 89 139
e 75 241
e 149 190
e 135 255
e 61 77
e 28 129
e 88 180
e 33 244
e 107 193
e 148 194
e 19 80
e 60 81
e 46 183
e 170 249
e 211 250
e 82 136
e 123 137
e 68 201
e 183 188
e 67 242
e 141 191
e 125 183
e 58 193
e 70 247
e 204 247
e 37 70
e 42 185
e 61 198
e 135 147
e 28 250
e 162 250
e 14 86
e 19 201
e 93 150
e 79 252
e 165 255
e 179 190
e 46 75
e 51 153
e 178 194
e 197 207
e 95 196
e 155 247
e 241 250
e 67 134
e 34 186
e 26 96
e 158 252
e 199 253
e 70 139
e 111 140
e 171 191
e 116 255
e 190 204
e 88 193
e 129 194
e 47 155
e 148 207
e 234 247
e 14 207
e 60 94
e 46 196
e 132 199
e 13 19
e 104 137
e 49 201
e 123 150
e 150 253
e 62 140
e 67 255
e 34 78
e 20 143
e 125 196
e 39 156
e 185 210
e 37 83
e 226 248
e 23 148
e 83 199
e 102 212
e 14 99
e 55 100
e 74 150
e 41 202
e 60 215
e 13 140
e 44 207
e 159 194
e 118 156
e 178 207
e 197 220
e 35 158
e 76 159
e 117 197
e 136 210
e 134 137
e 34 199
e 120 202
e 139 215
e 20 35
e 92 140
e 111 153
e 171 204
e 97 218
e 50 143
e 69 156
e 14 220
e 129 207
e 41 94
e 113 199
e 132 212
e 173 213
e 25 86
e 44 99
e 30 164
e 71 202
e 90 215
e 103 154
e 15 41
e 20 156
e 106 159
e 39 169
e 166 210
e 185 223
e 78 97
e 138 148
e 83 212
e 97 110
e 143 226
e 55 113
e 41 215
e 127 218
e 13 153
e 99 156
e 44 220
e 118 169
e 159 207
e 71 94
e 57 159
e 76 172
e 203 213
e 136 223
e 222 226
e 15 162
e 120 215
e 139 228
e 92 153
e 133 154
e 78 218
e 97 231
e 212 218
e 50 156
e 69 169
e 196 210
e 110 170
e 55 234
e 22 57
e 113 212
e 154 213
e 173 226
e 25 99
e 66 100
e 11 164
e 30 177
e 131 229
e 43 116
e 29 218
e 122 180
e 15 54
e 87 159
e 106 172
e 207 224
e 59 97
e 105 213
e 210 229
e 17 100
e 22 178
e 96 164
e 127 231
e 108 218
e 25 220
e 66 221
e 140 170
e 99 169
e 80 119
e 85 234
e 52 57
e 38 159
e 57 172
e 98 173
e 43 237
e 203 226
e 184 213
e 15 175
e 101 178
e 1 11
e 18 180
e 59 218
e 78 231
e 119 232
e 152 180
e 31 119
e 91 170
e 110 183
e 22 70
e 94 175
e 154 226
e 66 113
e 107 114
e 52 178
e 11 177
e 112 229
e 198 232
e 131 242
e 10 181
e 43 129
e 29 231
e 115 234
e 87 172
e 147 186
e 188 224
e 207 237
e 100 111
e 31 240
e 191 229
e 105 226
e 77 127
e 108 231
e 149 232
e 22 191
e 168 245
e 61 119
e 80 132
e 66 234
e 140 183
e 85 247
e 126 248
e 181 184
e 19 122
e 38 172
e 79 173
e 52 70
e 98 186
e 184 226
e 82 178
e 142 229
e 101 191
e 202 243
e 155 168
e 100 232
e 12 119
e 31 132
e 158 173
e 91 183
e 177 186
e 77 248
e 75 175
e 94 188
e 135 189
e 61 240
e 176 227
e 80 253
e 88 114
e 33 178
e 107 127
e 52 191
e 126 140
e 179 232
e 198 245
e 47 76
e 46 117
e 10 194
e 170 183
e 156 248
e 114 251
e 67 176
e 12 240
e 86 189
e 31 253
e 191 242
e 58 127
e 70 181
e 89 194
e 149 245
e 42 119
e 61 132
e 102 133
e 88 235
e 162 184
e 107 248
e 14 20
e 181 197
e 47 197
e 19 135
e 79 186
e 51 87
e 82 191
e 183 243
e 35 79
e 155 181
e 114 143
e 174 194
e 141 246
e 12 132
e 58 248
e 177 199
e 42 240
e 116 189
e 135 202
e 28 76
e 88 127
e 33 191
e 47 89
e 179 245
e 220 246
e 137 248
e 51 208
e 68 148
e 35 200
e 109 186
e 169 200
e 95 251
e 62 74
e 67 189
e 12 253
e 86 202
e 213 243
e 172 205
e 39 90
e 70 194
e 89 207
e 171 246
e 42 132
e 28 197
e 88 248
e 162 197
e 47 210
e 14 33
e 60 149
e 46 251
e 165 202
e 13 74
e 51 100
e 123 205
e 35 92
e 95 143
e 180 187
e 125 251
e 199 200
e 139 149
e 39 211
e 37 138
e 97 152
e 83 254
e 116 202
e 157 203
e 42 253
e 28 89
e 69 90
e 14 154
e 129 141
e 74 205
e 160 208
e 148 154
e 113 133
e 13 195
e 159 249
e 118 211
e 71 136
e 90 149
e 35 213
e 150 200
e 62 87
e 34 254
e 172 218
e 20 90
e 125 143
e 111 208
e 28 210
e 69 211
e 143 160
e 41 149
e 127 152
e 113 254
e 60 162
e 187 203
e 13 87
e 25 141
e 44 154
e 57 93
e 76 106
e 122 222
e 120 149
e 20 211
e 139 162
e 39 224
e 37 151
e 138 203
e 97 165
e 50 90
e 69 103
e 55 168
e 96 206
e 160 221
e 13 208
e 99 211
e 118 224
e 11 98
e 71 149
e 30 111
e 90 162
e 76 227
e 43 50
e 29 152
e 134 205
e 175 206
e 87 93
e 20 103
e 92 208
e 111 221
e 152 222
e 23 108
e 105 147
e 50 211
e 69 224
e 110 225
e 143 173
e 55 60
e 22 112
e 127 165
e 108 152
e 25 154
e 66 155
e 85 168
e 30 232
e 164 232
e 38 93
e 57 106
e 117 157
e 76 119
e 103 222
e 15 109
e 120 162
e 20 224
e 106 227
e 59 152
e 78 165
e 23 229
e 91 104
e 182 222
e 94 109
e 154 160
e 99 224
e 140 225
e 11 111
e 52 112
e 112 163
e 57 227
e 131 176
e 76 240
e 29 165
e 194 232
e 87 106
e 106 119
e 133 222
e 152 235
e 105 160
e 50 224
e 91 225
e 108 165
e 149 166
e 22 125
e 94 230
e 66 168
e 11 232
e 85 181
e 126 182
e 38 106
e 98 120
e 43 184
e 170 225
e 103 235
e 82 112
e 15 122
e 87 227
e 106 240
e 147 241
e 221 227
e 59 165
e 100 166
e 119 179
e 31 66
e 91 117
e 163 222
e 22 246
e 77 182
e 223 236
e 75 109
e 182 235
e 80 187
e 52 125
e 38 227
e 79 228
e 98 241
e 115 181
e 15 243
e 101 246
e 156 182
e 68 69
e 235 246
e 133 235
e 174 236
e 193 249
e 12 174
e 31 187
e 58 61
e 75 230
e 149 179
e 94 243
e 135 244
e 61 66
e 88 169
e 47 131
e 107 182
e 52 246
e 186 246
e 19 69
e 79 120
e 98 133
e 10 249
e 189 251
e 82 125
e 109 228
e 142 176
e 68 190
e 101 138
e 147 254
e 100 179
e 141 180
e 86 244
e 58 182
e 89 249
e 223 249
e 42 174
e 116 123
e 61 187
e 135 136
e 80 200
e 162 239
e 33 125
e 74 126
e 19 190
e 79 241
e 98 254
e 10 141
e 51 142
e 82 246
e 68 82
e 95 185
e 155 236
e 114 198
e 174 249
e 26 85
e 12 187
e 86 136
e 31 200
e 158 241
e 177 254
e 218 255
e 89 141
e 75 243
e 171 180
e 190 193
e 42 66
e 28 131
e 33 246
e 74 247
e 148 196
e 60 83
e 211 252
e 104 126
e 123 139
e 68 203
e 109 241
e 26 206
e 141 193
e 67 244
e 34 67
e 39 145
e 70 249
e 125 185
e 245 250
e 116 136
e 28 252
e 102 201
e 162 252
e 14 88
e 74 139
e 60 204
e 93 152
e 13 129
e 46 77
e 51 155
e 104 247
e 178 196
e 35 147
e 95 198
e 155 249
e 241 252
e 67 136
e 158 254
e 37 193
e 111 142
e 56 206
e 171 193
e 70 141
e 23 29
e 190 206
e 129 196
e 234 249
e 41 83
e 60 96
e 46 198
e 113 188
e 13 250
e 25 75
e 132 201
e 44 88
e 104 139
e 123 152
e 90 204
e 16 26
e 150 255
e 62 142
e 134 247
e 122 156
e 34 80
e 39 158
e 166 199
e 125 198
e 185 212
e 37 85
e 23 150
e 83 201
e 143 215
e 229 255
e 14 101
e 96 140
e 41 204
e 60 217
e 13 142
e 118 158
e 159 196
e 30 45
e 71 83
e 90 96
e 35 160
e 117 199
e 136 212
e 29 86
e 134 139
e 34 201
e 120 204
e 139 217
e 180 255
e 92 142
e 37 206
e 111 155
e 97 220
e 23 42
e 196 199
e 55 223
e 14 222
e 113 201
e 173 215
e 85 102
e 71 204
e 30 166
e 90 217
e 43 105
e 62 155
e 103 156
e 29 207
e 122 169
e 20 158
e 166 212
e 185 225
e 59 86
e 23 163
e 105 202
e 138 150
e 143 228
e 96 153
e 41 217
e 127 220
e 55 115
e 99 158
e 44 222
e 85 223
e 200 210
e 118 171
e 38 148
e 71 96
e 76 174
e 203 215
e 222 228
e 29 99
e 15 164
e 59 207
e 92 155
e 133 156
e 50 158
e 91 159
e 110 172
e 94 164
e 154 215
e 11 166
e 85 115
e 71 217
e 112 218
e 30 179
e 131 231
e 43 118
e 29 220
e 103 169
e 115 223
e 15 56
e 106 174
e 147 175
e 188 213
e 18 61
e 59 99
e 105 215
e 191 218
e 77 116
e 22 180
e 108 220
e 168 234
e 25 222
e 66 223
e 85 236
e 33 46
e 200 223
e 52 59
e 98 175
e 184 215
e 203 228
e 43 239
e 10 62
e 15 177
e 18 182
e 59 220
e 133 169
e 119 234
e 12 108
e 91 172
e 77 237
e 110 185
e 75 164
e 94 177
e 80 242
e 154 228
e 107 116
e 126 129
e 198 234
e 131 244
e 10 183
e 115 236
e 87 174
e 188 226
e 147 188
e 86 178
e 31 242
e 191 231
e 210 244
e 58 116
e 77 129
e 22 193
e 149 234
e 163 169
e 42 108
e 168 247
e 66 236
e 107 237
e 181 186
e 33 59
e 126 250
e 79 175
e 98 188
e 184 228
e 43 252
e 51 76
e 82 180
e 101 193
e 142 231
e 114 132
e 100 234
e 174 183
e 31 134
e 58 237
e 177 188
e 77 250
e 75 177
e 116 178
e 61 242
e 176 229
e 80 255
e 28 65
e 88 116
e 33 180
e 47 78
e 19 245
e 93 194
e 52 193
e 179 234
e 107 129
e 46 119
e 10 196
e 51 197
e 137 237
e 170 185
e 156 250
e 68 137
e 109 175
e 169 189
e 114 253
e 67 178
e 12 242
e 26 140
e 31 255
e 213 232
e 232 245
e 172 194
e 70 183
e 58 129
e 89 196
e 149 247
e 190 248
e 28 186
e 61 134
e 88 237
e 102 135
e 47 199
e 181 199
e 19 137
e 46 240
e 79 188
e 165 191
e 225 242
e 51 89
e 82 193
e 123 194
e 183 245
e 21 183
e 81 197
e 155 183
e 141 248
e 100 247
e 34 122
e 53 135
e 70 75
e 37 127
e 116 191
e 61 255
e 176 242
e 135 204
e 28 78
e 88 129
e 14 143
e 74 194
e 47 91
e 179 247
e 46 132
e 51 210
e 137 250
e 90 138
e 150 189
e 95 253
e 169 202
e 62 76
e 67 191
e 26 153
e 153 194
e 12 255
e 172 207
e 20 79
e 125 132
e 39 92
e 111 197
e 171 248
e 83 135
e 102 148
e 47 212
e 162 199
e 129 251
e 143 149
e 88 250
e 41 138
e 46 253
e 165 204
e 44 143
e 104 194
e 123 207
e 164 208
e 35 94
e 117 133
e 62 197
e 76 95
e 34 135
e 120 138
e 20 200
e 39 213
e 199 202
e 37 140
e 23 205
e 97 154
e 42 255
e 157 205
e 50 79
e 69 92
e 129 143
e 74 207
e 201 248
e 160 210
e 113 135
e 13 197
e 159 251
e 118 213
e 30 100
e 71 138
e 35 215
e 150 202
e 62 89
e 134 194
e 153 207
e 39 105
e 92 197
e 111 210
e 23 97
e 83 148
e 50 200
e 127 154
e 187 205
e 206 218
e 25 143
e 44 156
e 57 95
e 62 210
e 103 211
e 136 159
e 29 33
e 122 224
e 15 98
e 20 213
e 180 202
e 139 164
e 39 226
e 59 141
e 78 154
e 23 218
e 138 205
e 157 218
e 50 92
e 69 105
e 96 208
e 55 170
e 160 223
e 113 148
e 13 210
e 99 213
e 25 35
e 118 226
e 11 100
e 71 151
e 112 152
e 30 113
e 131 165
e 76 229
e 43 52
e 29 154
e 175 208
e 92 210
e 133 211
e 152 224
e 45 98
e 105 149
e 50 213
e 110 227
e 108 154
e 22 114
e 187 218
e 25 156
e 66 157
e 99 105
e 85 170
e 30 234
e 186 222
e 57 108
e 98 109
e 43 173
e 103 224
e 189 227
e 15 111
e 101 114
e 142 152
e 106 229
e 119 168
e 205 208
e 163 211
e 110 119
e 182 224
e 22 235
e 75 98
e 99 226
e 140 227
e 11 113
e 52 114
e 112 165
e 57 229
e 217 218
e 98 230
e 10 117
e 115 170
e 15 232
e 175 221
e 101 235
e 1 68
e 87 108
e 133 224
e 152 237
e 105 162
e 31 176
e 91 227
e 110 240
e 22 127
e 149 168
e 94 232
e 168 181
e 228 232
e 66 170
e 11 234
e 52 235
e 126 184
e 19 58
e 38 108
e 79 109
e 189 240
e 101 127
e 142 165
e 87 229
e 147 243
e 100 168
e 119 181
e 12 55
e 31 68
e 77 184
e 163 224
e 182 237
e 61 176
e 80 189
e 181 241
e 33 114
e 52 127
e 79 230
e 137 171
e 82 235
e 101 248
e 235 248
e 155 225
e 114 187
e 26 74
e 193 251
e 86 125
e 67 112
e 158 230
e 12 176
e 177 243
e 31 189
e 70 117
e 91 240
e 75 232
e 94 245
e 135 246
e 42 55
e 47 133
e 33 235
e 107 184
e 88 171
e 126 197
e 52 248
e 10 251
e 170 240
e 211 241
e 109 230
e 141 182
e 86 246
e 89 251
e 77 197
e 42 176
e 135 138
e 121 240
e 80 202
e 162 241
e 181 254
e 33 127
e 93 141
e 79 243
e 165 246
e 46 66
e 82 248
e 156 197
e 197 198
e 35 136
e 109 122
e 95 187
e 114 200
e 174 251
e 67 125
e 12 189
e 86 138
e 26 87
e 158 243
e 171 182
e 42 68
e 28 133
e 88 184
e 33 248
e 74 249
e 148 198
e 60 85
e 46 187
e 44 77
e 123 141
e 109 243
e 68 205
e 150 244
e 62 131
e 67 246
e 26 208
e 153 249
e 34 69
e 39 147
e 70 251
e 125 187
e 204 251
e 37 74
e 116 138
e 28 254
e 102 203
e 83 190
e 162 254
e 74 141
e 19 205
e 60 206
e 13 131
e 159 185
e 118 147
e 178 198
e 51 157
e 197 211
e 30 34
e 35 149
e 62 252
e 241 254
e 34 190
e 139 206
e 20 26
e 92 131
e 14 211
e 129 198
e 148 211
e 113 190
e 13 252
e 132 203
e 60 98
e 13 23
e 44 90
e 104 141
e 30 155
e 90 206
e 7 208
e 134 249
e 122 158
e 34 82
e 20 147
e 39 160
e 125 200
e 92 252
e 166 201
e 37 87
e 78 88
e 23 152
e 226 252
e 83 203
e 143 217
e 55 104
e 41 206
e 25 198
e 99 147
e 44 211
e 159 198
e 178 211
e 11 34
e 57 150
e 76 163
e 117 201
e 29 88
e 134 141
e 120 206
e 37 208
e 111 157
e 97 222
e 23 44
e 69 160
e 196 201
e 113 203
e 173 217
e 25 90
e 66 91
e 85 104
e 30 168
e 71 206
e 131 220
e 164 168
e 103 158
e 87 150
e 20 160
e 106 163
e 59 88
e 78 101
e 23 165
e 105 204
e 143 230
e 22 169
e 96 155
e 55 117
e 25 211
e 44 224
e 85 225
e 200 212
e 38 150
e 57 163
e 184 204
e 76 176
e 43 228
e 222 230
e 29 101
e 15 166
e 152 171
e 97 235
e 22 61
e 94 166
e 154 217
e 173 230
e 66 104
e 11 168
e 52 169
e 112 220
e 38 42
e 43 120
e 103 171
e 87 163
e 106 176
e 147 177
e 188 215
e 207 228
e 59 101
e 105 217
e 191 220
e 58 105
e 77 118
e 22 182
e 108 222
e 127 235
e 168 236
e 61 110
e 80 123
e 66 225
e 140 174
e 200 225
e 38 163
e 79 164
e 184 217
e 98 177
e 43 241
e 82 169
e 15 179
e 101 182
e 142 220
e 59 222
e 100 223
e 133 171
e 119 236
e 45 58
e 12 110
e 31 123
e 91 174
e 77 239
e 75 166
e 94 179
e 135 180
e 176 218
e 80 244
e 47 67
e 33 169
e 107 118
e 126 131
e 198 236
e 10 185
e 156 239
e 68 126
e 109 164
e 188 228
e 100 115
e 12 231
e 86 180
e 31 244
e 58 118
e 89 185
e 77 131
e 149 236
e 168 249
e 42 110
e 61 123
e 47 188
e 162 175
e 107 239
e 33 61
e 19 126
e 79 177
e 98 190
e 10 77
e 51 78
e 82 182
e 68 247
e 183 234
e 202 247
e 114 134
e 155 172
e 174 185
e 100 236
e 119 249
e 12 123
e 158 177
e 58 239
e 177 190
e 77 252
e 42 231
e 75 179
e 61 244
e 135 193
e 176 231
e 28 67
e 88 118
e 47 80
e 107 131
e 19 247
e 93 196
e 179 236
e 74 183
e 10 198
e 137 239
e 51 199
e 156 252
e 109 177
e 68 139
e 95 242
e 169 191
e 114 255
e 67 180
e 12 244
e 26 142
e 172 196
e 232 247
e 70 185
e 89 198
e 149 249
e 190 250
e 28 188
e 102 137
e 47 201
e 162 188
e 88 239
e 148 253
e 74 75
e 19 139
e 60 140
e 46 242
e 165 193
e 51 91
e 104 183
e 123 196
e 35 83
e 95 134
e 155 185
e 141 250
e 39 202
e 58 252
e 125 242
e 37 129
e 70 77
e 42 244
e 116 193
e 157 194
e 28 80
e 69 81
e 74 196
e 160 199
e 220 250
e 13 186
e 46 134
e 132 137
e 137 252
e 51 212
e 178 253
e 35 204
e 150 191
e 95 255
e 169 204
e 62 78
e 26 155
e 153 196
e 34 245
e 213 247
e 20 81
e 125 134
e 37 250
e 111 199
e 83 137
e 28 201
e 69 202
e 88 252
e 102 150
e 14 37
e 41 140
e 60 153
e 13 78
e 104 196
e 164 210
e 35 96
e 117 135
e 62 199
e 136 148
e 122 213
e 34 137
e 120 140
e 20 202
e 139 153
e 180 191
e 39 215
e 199 204
e 37 142
e 97 156
e 157 207
e 55 159
e 96 197
e 160 212
e 201 250
e 113 137
e 13 199
e 99 202
e 159 253
e 11 89
e 30 102
e 71 140
e 90 153
e 35 217
e 76 218
e 150 204
e 62 91
e 134 196
e 20 94
e 92 199
e 111 212
e 152 213
e 23 99
e 105 138
e 50 202
e 143 164
e 108 143
e 41 153
e 127 156
e 187 207
e 44 158
e 85 159
e 30 223
e 164 223
e 57 97
e 76 110
e 62 212
e 103 213
e 117 148
e 29 35
e 122 226
e 15 100
e 120 153
e 106 218
e 180 204
e 59 143
e 78 156
e 23 220
e 97 169
e 138 207
e 50 94
e 55 172
e 182 213
e 96 210
e 94 100
e 99 215
e 11 102
e 71 153
e 38 205
e 30 115
e 112 154
e 57 218
e 76 231
e 43 54
e 29 156
e 103 105
e 115 159
e 175 210
e 15 221
e 194 223
e 92 212
e 133 213
e 152 226
e 50 215
e 110 229
e 22 116
e 108 156
e 94 221
e 66 159
e 11 223
e 85 172
e 30 236
e 186 224
e 38 97
e 57 110
e 98 111
e 43 175
e 103 226
e 189 229
e 15 113
e 142 154
e 87 218
e 106 231
e 147 232
e 205 210
e 119 170
e 31 57
e 91 108
e 163 213
e 22 237
e 77 173
e 75 100
e 94 113
e 80 178
e 154 164
e 140 229
e 33 103
e 38 218
e 57 231
e 98 232
e 10 119
e 115 172
e 15 234
e 175 223
e 101 237
e 1 70
e 87 110
e 73 175
e 133 226
e 174 227
e 31 178
e 91 229
e 177 232
e 110 242
e 89 119
e 75 221
e 94 234
e 168 183
e 228 234
e 33 224
e 107 173
e 52 237
e 126 186
e 186 237
e 19 60
e 10 240
e 170 229
e 10 11
e 189 242
e 82 116
e 101 129
e 87 231
e 147 245
e 100 170
e 86 235
e 31 70
e 77 186
e 204 227
e 22 250
e 223 240
e 75 113
e 61 178
e 80 191
e 140 242
e 181 243
e 33 116
e 19 181
e 52 129
e 98 245
e 46 55
e 10 132
e 51 133
e 82 237
e 156 186
e 101 250
e 114 189
e 155 227
e 174 240
e 26 76
e 12 178
e 86 127
e 31 191
e 158 232
e 193 253
e 177 245
e 89 132
e 149 183
e 116 235
e 42 57
e 135 248
e 61 70
e 28 122
e 47 135
e 88 173
e 33 237
e 52 250
e 93 251
e 126 199
e 60 74
e 46 176
e 10 253
e 170 242
e 82 129
e 68 194
e 109 232
e 169 246
e 67 235
e 26 197
e 86 248
e 172 251
e 70 240
e 89 253
e 204 240
e 223 253
e 42 178
e 116 127
e 135 140
e 93 143
e 79 245
e 165 248
e 46 68
e 137 186
e 82 250
e 197 200
e 35 138
e 95 189
e 114 202
e 155 240
e 26 89
e 67 127
e 12 191
e 158 245
e 70 132
e 111 133
e 171 184
e 116 248
e 190 197
e 28 135
e 14 200
e 88 186
e 74 251
e 148 200
e 234 240
e 41 74
e 47 148
e 60 87
e 46 189
e 129 187
e 65 202
e 44 79
e 123 143
e 109 245
e 150 246
e 68 207
e 62 133
e 26 210
e 153 251
e 67 248
e 34 71
e 20 136
e 39 149
e 70 253
e 144 202
e 226 241
e 37 76
e 245 254
e 185 203
e 42 191
e 23 141
e 102 205
e 229 246
e 14 92
e 74 143
e 60 208
e 13 133
e 44 200
e 118 149
e 104 251
e 178 200
e 71 74
e 16 138
e 35 151
e 76 152
e 95 202
e 136 203
e 29 77
e 139 208
e 180 246
e 39 41
e 37 197
e 92 133
e 97 211
e 138 249
e 171 197
e 50 136
e 69 149
e 41 87
e 13 254
e 25 79
e 44 92
e 30 157
e 104 143
e 90 208
e 7 210
e 103 147
e 122 160
e 134 251
e 20 149
e 106 152
e 92 254
e 39 162
e 166 203
e 185 216
e 226 254
e 59 77
e 78 90
e 23 154
e 83 205
e 55 106
e 41 208
e 127 211
e 60 221
e 99 149
e 44 213
e 159 200
e 118 162
e 117 203
e 29 90
e 15 155
e 34 205
e 120 208
e 139 221
e 133 147
e 78 211
e 37 210
e 97 224
e 69 162
e 110 163
e 196 203
e 55 227
e 113 205
e 25 92
e 66 93
e 11 157
e 71 208
e 30 170
e 90 221
e 131 222
e 43 109
e 29 211
e 103 160
e 122 173
e 87 152
e 106 165
e 207 217
e 59 90
e 78 103
e 210 222
e 143 232
e 108 211
e 96 157
e 127 224
e 22 171
e 25 213
e 99 162
e 140 163
e 85 227
e 38 152
e 57 165
e 98 166
e 43 230
e 184 206
e 101 171
e 120 221
e 18 173
e 133 160
e 78 224
e 119 225
e 59 211
e 31 112
e 91 163
e 110 176
e 55 240
e 75 155
e 94 168
e 173 232
e 52 171
e 112 222
e 131 235
e 29 224
e 87 165
e 73 230
e 188 217
e 207 230
e 100 104
e 191 222
e 210 235
e 77 120
e 108 224
e 22 184
e 149 225
e 61 112
e 140 176
e 85 240
e 33 50
e 126 241
e 38 165
e 82 171
e 101 184
e 142 222
e 202 236
e 100 225
e 31 125
e 91 176
e 58 228
e 77 241
e 75 168
e 94 181
e 176 220
e 80 246
e 88 107
e 47 69
e 107 120
e 52 184
e 126 133
e 93 185
e 112 235
e 179 225
e 33 171
e 10 187
e 170 176
e 115 240
e 156 241
e 109 166
e 114 244
e 188 230
e 100 117
e 26 131
e 86 182
e 67 169
e 70 174
e 58 120
e 89 187
e 149 238
e 42 112
e 168 251
e 80 138
e 162 177
e 88 228
e 107 241
e 181 190
e 79 179
e 165 182
e 51 80
e 82 184
e 123 185
e 68 249
e 183 236
e 142 235
e 202 249
e 114 136
e 26 252
e 141 239
e 12 125
e 58 241
e 77 254
e 116 182
e 61 246
e 28 69
e 47 82
e 33 184
e 74 185
e 19 249
e 93 198
e 198 251
e 239 252
e 5 85
e 46 123
e 137 241
e 51 201
e 156 254
e 197 255
e 109 179
e 150 180
e 68 141
e 169 193
e 95 244
e 62 67
e 67 182
e 12 246
e 213 236
e 172 198
e 39 83
e 70 187
e 171 239
e 190 252
e 42 125
e 28 190
e 102 139
e 88 241
e 47 203
e 107 254
e 14 26
e 148 255
e 162 190
e 19 141
e 60 142
e 46 244
e 13 67
e 51 93
e 123 198
e 183 249
e 35 85
e 95 136
e 141 252
e 227 255
e 34 126
e 125 244
e 39 204
e 37 131
e 42 246
e 83 247
e 157 196
e 28 82
e 69 83
e 14 147
e 74 198
e 160 201
e 201 239
e 113 126
e 13 188
e 132 139
e 118 204
e 137 254
e 178 255
e 30 91
e 90 142
e 35 206
e 150 193
e 169 206
e 62 80
e 34 247
e 153 198
e 213 249
e 172 211
e 20 83
e 92 188
e 37 252
e 39 96
e 125 136
e 171 252
e 111 201
e 23 88
e 83 139
e 28 203
e 69 204
e 143 153
e 129 255
e 113 247
e 187 196
e 13 80
e 25 134
e 44 147
e 104 198
e 164 212
e 57 86
e 117 137
e 62 201
e 136 150
e 76 99
e 122 215
e 208 255
e 34 139
e 120 142
e 180 193
e 39 217
e 138 196
e 97 158
e 50 83
e 69 96
e 14 160
e 113 139
e 13 201
e 25 255
e 99 204
e 25 26
e 118 217
e 11 91
e 159 255
e 30 104
e 71 142
e 90 155
e 131 156
e 57 207
e 175 199
e 194 212
e 20 96
e 92 201
e 152 215
e 23 101
e 105 140
e 50 204
e 69 217
e 143 166
e 110 218
e 22 105
e 41 155
e 127 158
e 25 147
e 44 160
e 11 212
e 30 225
e 38 86
e 164 225
e 57 99
e 43 164
e 76 112
e 103 215
e 117 150
e 122 228
e 15 102
e 120 155
e 20 217
e 106 220
e 87 207
e 78 158
e 23 222
e 97 171
e 50 96
e 91 97
e 55 174
e 182 215
e 96 212
e 99 217
e 140 218
e 11 104
e 52 105
e 112 156
e 57 220
e 131 169
e 24 43
e 29 158
e 15 223
e 175 212
e 194 225
e 87 99
e 106 112
e 133 215
e 105 153
e 50 217
e 91 218
e 110 231
e 108 158
e 22 118
e 94 223
e 11 225
e 85 174
e 186 226
e 38 99
e 79 100
e 98 113
e 43 177
e 170 218
e 103 228
e 189 231
e 82 105
e 101 118
e 87 220
e 59 158
e 100 159
e 205 212
e 12 46
e 77 175
e 163 215
e 182 228
e 22 239
e 223 229
e 80 180
e 140 231
e 52 118
e 38 220
e 112 169
e 98 234
e 115 174
e 156 175
e 101 239
e 15 236
e 133 228
e 174 229
e 193 242
e 86 116
e 31 180
e 91 231
e 177 234
e 75 223
e 149 172
e 94 236
e 66 174
e 107 175
e 126 188
e 186 239
e 79 113
e 98 126
e 10 242
e 170 231
e 68 183
e 142 169
e 109 221
e 101 131
e 147 247
e 100 172
e 86 237
e 119 185
e 12 59
e 58 175
e 163 228
e 22 252
e 89 242
e 77 188
e 204 229
e 61 180
e 162 232
e 33 118
e 74 119
e 19 183
e 93 132
e 79 234
e 98 247
e 46 57
e 10 134
e 51 135
e 137 175
e 82 239
e 101 252
e 109 113
e 68 75
e 95 178
e 114 191
e 155 229
e 174 242
e 67 116
e 12 180
e 86 129
e 31 193
e 158 234
e 177 247
e 218 248
e 89 134
e 116 237
e 135 250
e 47 137
e 33 239
e 107 188
e 52 252
e 148 189
e 88 175
e 19 75
e 60 76
e 46 178
e 93 253
e 10 255
e 211 245
e 104 119
e 123 132
e 109 234
e 67 237
e 26 199
e 86 250
e 34 60
e 141 186
e 39 138
e 70 242
e 58 188
e 89 255
e 204 242
e 125 178
e 42 180
e 116 129
e 61 193
e 102 194
e 162 245
e 74 132
e 19 196
e 60 197
e 165 250
e 46 70
e 13 122
e 104 240
e 178 189
e 123 253
e 197 202
e 35 140
e 95 191
e 155 242
e 114 204
e 67 129
e 158 247
e 37 186
e 111 135
e 116 250
e 157 251
e 28 137
e 69 138
e 14 202
e 88 188
e 129 189
e 148 202
e 74 253
e 41 76
e 60 89
e 132 194
e 25 68
e 104 132
e 90 197
e 150 248
e 62 135
e 81 148
e 122 149
e 134 240
e 26 212
e 153 253
e 67 250
e 20 138
e 125 191
e 70 255
e 185 205
e 37 78
e 23 143
e 102 207
e 143 208
e 229 248
e 14 94
e 55 95
e 96 133
e 41 197
e 13 135
e 44 202
e 159 189
e 104 253
e 11 25
e 178 202
e 71 76
e 35 153
e 136 205
e 29 79
e 34 194
e 120 197
e 139 210
e 180 248
e 20 30
e 37 199
e 111 148
e 138 251
e 97 213
e 23 35
e 50 138
e 14 215
e 129 202
e 41 89
e 113 194
e 132 207
e 173 208
e 44 94
e 85 95
e 30 159
e 90 210
e 217 251
e 62 148
e 103 149
e 134 253
e 29 200
e 106 154
e 166 205
e 59 79
e 185 218
e 23 156
e 83 207
e 143 221
e 55 108
e 41 210
e 127 213
e 25 202
e 44 215
e 118 164
e 159 202
e 30 51
e 38 141
e 57 154
e 71 89
e 117 205
e 136 218
e 120 210
e 92 148
e 78 213
e 152 162
e 97 226
e 110 165
e 55 229
e 215 218
e 22 52
e 113 207
e 154 208
e 173 221
e 66 95
e 11 159
e 85 108
e 71 210
e 112 211
e 30 172
e 131 224
e 43 111
e 29 213
e 103 162
e 87 154
e 147 168
e 59 92
e 105 208
e 210 224
e 22 173
e 108 213
e 127 226
e 168 227
e 80 114
e 25 215
e 140 165
e 85 229
e 38 154
e 98 168
e 184 208
e 203 221
e 222 234
e 10 55
e 15 170
e 101 173
e 142 211
e 133 162
e 78 226
e 119 227
e 31 114
e 77 230
e 110 178
e 94 170
e 154 221
e 80 235
e 33 160
e 66 108
e 52 173
e 198 227
e 131 237
e 10 176
e 115 229
e 147 181
e 207 232
e 100 106
e 86 171
e 31 235
e 105 221
e 191 224
e 58 109
e 77 122
e 108 226
e 149 227
e 22 186
e 168 240
e 61 114
e 80 127
e 107 230
e 140 178
e 126 243
e 19 117
e 79 168
e 24 232
e 184 221
e 43 245
e 98 181
e 10 68
e 51 69
e 82 173
e 101 186
e 142 224
e 114 125
e 100 227
e 174 176
e 119 240
e 12 114
e 31 127
e 58 230
e 77 243
e 75 170
e 116 171
e 176 222
e 80 248
e 28 58
e 88 109
e 47 71
e 33 173
e 52 186
e 179 227
e 93 187
e 46 112
e 10 189
e 137 230
e 156 243
e 109 168
e 169 182
e 114 246
e 26 133
e 12 235
e 67 171
e 31 248
e 191 237
e 172 187
e 70 176
e 89 189
e 149 240
e 190 241
e 42 114
e 61 127
e 88 230
e 107 243
e 14 15
e 79 181
e 165 184
e 225 235
e 244 248
e 51 82
e 82 186
e 68 251
e 35 74
e 95 125
e 155 176
e 100 240
e 26 254
e 114 138
e 12 127
e 158 181
e 58 243
e 42 235
e 116 184
e 61 248
e 135 197
e 102 249
e 176 235
e 28 71
e 88 122
e 14 136
e 74 187
e 19 251
e 93 200
e 179 240
e 5 87
e 46 125
e 65 138
e 137 243
e 51 203
e 68 143
e 95 246
e 62 69
e 67 184
e 153 187
e 12 248
e 172 200
e 232 251
e 39 85
e 70 189
e 171 241
e 23 77
e 102 141
e 88 243
e 47 205
e 129 244
e 41 131
e 165 197
e 132 249
e 44 136
e 104 187
e 123 200
e 164 201
e 183 251
e 35 87
e 76 88
e 117 126
e 141 254
e 125 246
e 37 133
e 42 248
e 138 185
e 83 249
e 97 147
e 157 198
e 14 149
e 41 252
e 201 241
e 160 203
e 220 254
e 13 190
e 159 244
e 118 206
e 71 131
e 30 93
e 90 144
e 35 208
e 62 82
e 134 187
e 194 201
e 213 251
e 20 85
e 92 190
e 39 98
e 111 203
e 171 254
e 212 255
e 23 90
e 50 193
e 83 141
e 69 206
e 143 155
e 127 147
e 113 249
e 187 198
e 206 211
e 13 82
e 247 249
e 44 149
e 104 200
e 71 252
e 57 88
e 76 101
e 117 139
e 103 204
e 62 203
e 122 217
e 20 206
e 139 157
e 37 146
e 78 147
e 23 211
e 138 198
e 97 160
e 157 211
e 50 85
e 69 98
e 55 163
e 96 201
e 201 254
e 242 255
e 113 141
e 13 203
e 99 206
e 11 93
e 30 106
e 90 157
e 131 158
e 29 147
e 134 200
e 175 201
e 87 88
e 105 142
e 50 206
e 143 168
e 110 220
e 108 147
e 22 107
e 127 160
e 187 211
e 25 149
e 66 150
e 85 163
e 30 227
e 186 215
e 38 88
e 57 101
e 43 166
e 103 217
e 189 220
e 122 230
e 15 104
e 101 107
e 106 222
e 59 147
e 23 224
e 110 112
e 55 176
e 22 228
e 163 204
e 182 217
e 140 220
e 11 106
e 52 107
e 57 222
e 10 110
e 29 160
e 115 163
e 87 101
e 133 217
e 152 230
e 193 231
e 31 169
e 105 155
e 91 220
e 22 120
e 108 160
e 94 225
e 66 163
e 11 227
e 52 228
e 85 176
e 126 177
e 186 228
e 38 101
e 79 102
e 43 179
e 170 220
e 82 107
e 101 120
e 87 222
e 147 236
e 59 160
e 119 174
e 31 61
e 91 112
e 58 164
e 163 217
e 22 241
e 77 177
e 182 230
e 75 104
e 61 169
e 94 117
e 80 182
e 181 234
e 33 107
e 52 120
e 38 222
e 98 236
e 10 123
e 82 228
e 101 241
e 235 241
e 114 180
e 174 231
e 26 67
e 67 105
e 12 169
e 31 182
e 177 236
e 89 123
e 75 225
e 149 174
e 135 239
e 168 187
e 88 164
e 33 228
e 107 177
e 52 241
e 79 115
e 10 244
e 211 234
e 82 120
e 109 223
e 68 185
e 147 249
e 100 174
e 141 175
e 86 239
e 26 188
e 58 177
e 89 244
e 77 190
e 204 231
e 223 244
e 42 169
e 61 182
e 181 247
e 33 120
e 19 185
e 79 236
e 165 239
e 51 137
e 82 241
e 156 190
e 101 254
e 35 129
e 54 179
e 95 180
e 109 115
e 114 193
e 174 244
e 26 80
e 12 182
e 86 131
e 158 236
e 70 123
e 42 61
e 135 252
e 28 126
e 47 139
e 33 241
e 107 190
e 148 191
e 93 255
e 74 242
e 60 78
e 46 180
e 123 134
e 109 236
e 150 237
e 183 185
e 169 250
e 26 201
e 67 239
e 86 252
e 34 62
e 172 255
e 125 180
e 70 244
e 39 140
e 37 67
e 42 182
e 116 131
e 83 183
e 28 247
e 102 196
e 162 247
e 14 83
e 74 134
e 19 198
e 60 199
e 165 252
e 118 140
e 51 150
e 178 191
e 104 242
e 123 255
e 137 190
e 35 142
e 95 193
e 136 194
e 34 183
e 180 237
e 139 199
e 199 250
e 37 188
e 111 137
e 56 201
e 171 188
e 116 252
e 157 253
e 190 201
e 69 140
e 14 204
e 129 191
e 74 255
e 234 244
e 148 204
e 41 78
e 113 183
e 13 245
e 60 91
e 46 193
e 25 70
e 44 83
e 90 199
e 150 250
e 62 137
e 153 255
e 34 75
e 20 140
e 125 193
e 166 194
e 39 153
e 185 207
e 37 80
e 226 245
e 229 250
e 143 210
e 14 96
e 55 97
e 96 135
e 146 252
e 60 212
e 187 253
e 25 191
e 13 137
e 44 204
e 118 153
e 99 140
e 178 204
e 57 143
e 117 194
e 76 156
e 136 207
e 34 196
e 120 199
e 180 250
e 139 212
e 92 137
e 37 201
e 111 150
e 78 202
e 97 215
e 138 253
e 23 37
e 50 140
e 69 153
e 14 217
e 55 218
e 129 204
e 110 154
e 113 196
e 173 210
e 25 83
e 44 96
e 85 97
e 11 148
e 90 212
e 131 213
e 43 100
e 29 202
e 122 164
e 15 38
e 20 153
e 106 156
e 166 207
e 185 220
e 23 158
e 105 197
e 143 223
e 108 202
e 55 110
e 127 215
e 41 212
e 96 148
e 25 204
e 99 153
e 140 154
e 85 218
e 44 217
e 159 204
e 57 156
e 43 221
e 203 210
e 76 169
e 117 207
e 29 94
e 120 212
e 18 164
e 59 202
e 78 215
e 152 164
e 97 228
e 50 153
e 91 154
e 196 207
e 55 231
e 215 220
e 94 159
e 173 223
e 66 97
e 85 110
e 71 212
e 112 213
e 131 226
e 43 113
e 29 215
e 115 218
e 15 51
e 87 156
e 147 170
e 188 208
e 59 94
e 105 210
e 191 213
e 77 111
e 22 175
e 108 215
e 127 228
e 168 229
e 66 218
e 85 231
e 126 232
e 38 156
e 79 157
e 98 170
e 43 234
e 203 223
e 184 210
e 10 57
e 82 162
e 15 172
e 101 175
e 142 213
e 59 215
e 133 164
e 45 51
e 31 116
e 77 232
e 75 159
e 94 172
e 135 173
e 80 237
e 154 223
e 47 60
e 33 162
e 52 175
e 198 229
e 10 178
e 115 231
e 156 232
e 68 119
e 109 157
e 188 221
e 207 234
e 12 224
e 86 173
e 31 237
e 191 226
e 210 239
e 58 111
e 89 178
e 22 188
e 149 229
e 168 242
e 42 103
e 162 168
e 107 232
e 66 231
e 126 245
e 19 119
e 79 170
e 184 223
e 98 183
e 10 70
e 51 71
e 82 175
e 101 188
e 142 226
e 68 240
e 202 240
e 155 165
e 114 127
e 174 178
e 119 242
e 100 229
e 12 116
e 31 129
e 158 170
e 58 232
e 77 245
e 42 224
e 75 172
e 61 237
e 176 224
e 135 186
e 80 250
e 116 173
e 88 111
e 33 175
e 74 176
e 19 240
e 93 189
e 179 229
e 198 242
e 239 243
e 46 114
e 10 191
e 137 232
e 156 245
e 109 170
e 95 235
e 114 248
e 67 173
e 12 237
e 86 186
e 31 250
e 26 135
e 232 240
e 39 74
e 70 178
e 89 191
e 149 242
e 190 243
e 42 116
e 61 129
e 28 181
e 88 232
e 162 181
e 107 245
e 148 246
e 181 194
e 47 194
e 60 133
e 46 235
e 165 186
e 13 58
e 225 237
e 123 189
e 68 253
e 183 240
e 35 76
e 202 253
e 155 178
e 114 140
e 141 243
e 34 117
e 125 235
e 158 183
e 58 245
e 37 122
e 42 237
e 116 186
e 157 187
e 176 237
e 61 250
e 102 251
e 69 74
e 14 138
e 74 189
e 60 254
e 220 243
e 51 205
e 178 246
e 90 133
e 35 197
e 150 184
e 169 197
e 67 186
e 26 148
e 53 251
e 172 202
e 213 240
e 20 74
e 39 87
e 70 191
e 171 243
e 23 79
e 28 194
e 88 245
e 129 246
e 47 207
e 41 133
e 132 251
e 13 71
e 44 138
e 104 189
e 123 202
e 90 254
e 164 203
e 35 89
e 76 90
e 208 246
e 120 133
e 180 184
e 125 248
e 39 208
e 37 135
e 23 200
e 97 149
e 83 251
e 157 200
e 50 74
e 129 138
e 55 152
e 96 190
e 201 243
e 160 205
e 41 254
e 132 143
e 159 246
e 118 208
e 11 82
e 71 133
e 35 210
e 150 197
e 76 211
e 117 249
e 29 136
e 134 189
e 34 251
e 153 202
e 120 254
e 20 87
e 111 205
e 152 206
e 23 92
e 83 143
e 69 208
e 127 149
e 113 251
e 187 200
e 247 251
e 25 138
e 85 152
e 71 254
e 38 77
e 57 90
e 76 103
e 62 205
e 103 206
e 117 141
e 15 93
e 20 208
e 180 197
e 139 159
e 106 211
e 39 221
e 59 136
e 23 213
e 138 200
e 50 87
e 96 203
e 182 206
e 99 208
e 118 221
e 30 108
e 112 147
e 57 211
e 131 160
e 76 224
e 29 149
e 115 152
e 175 203
e 87 90
e 133 206
e 45 93
e 105 144
e 50 208
e 69 221
e 110 222
e 108 149
e 22 109
e 127 162
e 66 152
e 85 165
e 30 229
e 186 217
e 57 103
e 98 104
e 43 168
e 189 222
e 15 106
e 142 147
e 87 211
e 106 224
e 59 149
e 78 162
e 119 163
e 91 101
e 77 166
e 163 206
e 22 230
e 110 114
e 75 93
e 94 106
e 80 171
e 140 222
e 52 109
e 38 211
e 112 160
e 57 224
e 131 173
e 98 225
e 10 112
e 15 227
e 101 230
e 174 220
e 86 107
e 31 171
e 91 222
e 110 235
e 89 112
e 108 162
e 22 122
e 94 227
e 66 165
e 107 166
e 52 230
e 126 179
e 186 230
e 79 104
e 98 117
e 43 181
e 170 222
e 189 235
e 101 122
e 87 224
e 142 160
e 100 163
e 119 176
e 12 50
e 58 166
e 77 179
e 22 243
e 75 106
e 61 171
e 80 184
e 140 235
e 181 236
e 33 109
e 52 122
e 93 123
e 79 225
e 19 174
e 46 48
e 10 125
e 137 166
e 82 230
e 156 179
e 101 243
e 114 182
e 155 220
e 193 246
e 26 69
e 86 120
e 158 225
e 75 227
e 149 176
e 94 240
e 135 241
e 28 115
e 88 166
e 33 230
e 52 243
e 93 244
e 46 169
e 79 117
e 10 246
e 68 187
e 109 225
e 21 112
e 147 251
e 26 190
e 100 176
e 141 177
e 58 179
e 89 246
e 223 246
e 42 171
e 116 120
e 61 184
e 102 185
e 162 236
e 181 249
e 19 187
e 93 136
e 46 61
e 137 179
e 51 139
e 123 244
e 35 131
e 68 79
e 67 120
e 12 184
e 218 252
e 70 125
e 171 177
e 116 241
e 88 179
e 47 141
e 33 243
e 148 193
e 74 244
e 14 193
e 41 67
e 60 80
e 46 182
e 132 185
e 211 249
e 104 123
e 123 136
e 35 252
e 68 200
e 183 187
e 169 252
e 67 241
e 141 190
e 86 254
e 153 244
e 53 77
e 20 129
e 39 142
e 70 246
e 125 182
e 185 196
e 37 69
e 83 185
e 28 249
e 102 198
e 229 239
e 162 249
e 14 85
e 74 136
e 41 188
e 60 201
e 13 126
e 44 193
e 118 142
e 104 244
e 178 193
e 159 180
e 197 206
e 35 144
e 21 246
e 62 247
e 136 196
e 34 185
e 139 201
e 180 239
e 199 252
e 92 126
e 37 190
e 111 139
e 97 204
e 23 26
e 157 255
e 50 129
e 69 142
e 148 206
e 60 93
e 113 185
e 132 198
e 13 247
e 104 136
e 71 188
e 90 201
e 30 150
e 150 252
e 236 255
e 62 139
e 103 140
e 134 244
e 122 153
e 20 142
e 39 155
e 166 196
e 92 247
e 78 83
e 23 147
e 83 198
e 143 212
e 229 252
e 41 201
e 127 204
e 187 255
e 13 139
e 99 142
e 44 206
e 118 155
e 159 193
e 11 29
e 30 42
e 71 80
e 117 196
e 76 158
e 29 83
e 134 136
e 34 198
e 120 201
e 92 139
e 97 217
e 138 255
e 50 142
e 69 155
e 110 156
e 55 220
e 22 43
e 113 198
e 154 199
e 25 85
e 66 86
e 11 150
e 30 163
e 71 201
e 217 255
e 43 102
e 103 153
e 122 166
e 87 145
e 106 158
e 207 210
e 59 83
e 78 96
e 105 199
e 143 225
e 55 112
e 22 164
e 127 217
e 96 150
e 108 204
e 25 206
e 66 207
e 99 155
e 85 220
e 11 42
e 184 199
e 43 223
e 203 212
e 98 159
e 29 96
e 18 166
e 133 153
e 59 204
e 152 166
e 119 218
e 31 105
e 91 156
e 110 169
e 75 148
e 154 212
e 173 225
e 66 99
e 11 163
e 85 112
e 131 228
e 43 115
e 29 217
e 115 220
e 87 158
e 188 210
e 105 212
e 31 226
e 191 215
e 58 100
e 77 113
e 108 217
e 149 218
e 168 231
e 80 118
e 66 220
e 140 169
e 33 43
e 126 234
e 200 220
e 38 158
e 79 159
e 184 212
e 98 172
e 203 225
e 43 236
e 82 164
e 101 177
e 142 215
e 202 229
e 59 217
e 100 218
e 12 105
e 31 118
e 91 169
e 58 221
e 94 174
e 61 226
e 80 239
e 176 213
e 88 100
e 33 164
e 107 113
e 52 177
e 179 218
e 112 228
e 198 231
e 10 180
e 156 234
e 109 159
e 147 185
e 188 223
e 114 237
e 100 110
e 67 162
e 86 175
e 31 239
e 191 228
e 58 113
e 77 126
e 89 180
e 149 231
e 42 105
e 168 244
e 61 118
e 80 131
e 88 221
e 47 183
e 107 234
e 126 247
e 79 172
e 165 175
e 82 177
e 142 228
e 183 229
e 68 242
e 95 116
e 114 129
e 100 231
e 141 232
e 174 180
e 12 118
e 158 172
e 58 234
e 77 247
e 42 226
e 61 239
e 135 188
e 80 252
e 28 62
e 176 226
e 88 113
e 33 177
e 74 178
e 19 242
e 47 75
e 93 191
e 198 244
e 239 245
e 46 116
e 10 193
e 51 194
e 137 234
e 156 247
e 197 248
e 68 134
e 150 173
e 109 172
e 169 186
e 114 250
e 95 237
e 26 137
e 67 175
e 86 188
e 12 239
e 153 178
e 232 242
e 172 191
e 39 76
e 70 180
e 89 193
e 171 232
e 190 245
e 42 118
e 28 183
e 102 132
e 47 196
e 162 183
e 88 234
e 14 19
e 148 248
e 107 247
e 19 134
e 60 135
e 165 188
e 225 239
e 104 178
e 51 86
e 123 191
e 68 255
e 183 242
e 35 78
e 95 129
e 141 245
e 34 119
e 39 197
e 42 239
e 116 188
e 83 240
e 9 62
e 102 253
e 28 75
e 74 191
e 201 232
e 19 255
e 220 245
e 160 194
e 46 129
e 13 181
e 51 207
e 178 248
e 137 247
e 90 135
e 35 199
e 150 186
e 95 250
e 169 199
e 136 251
e 134 178
e 34 240
e 153 191
e 213 242
e 172 204
e 20 76
e 125 129
e 37 245
e 39 89
e 111 194
e 171 245
e 83 132
e 41 135
e 113 240
e 60 148
e 46 250
e 25 127
e 44 140
e 104 191
e 164 205
e 57 79
e 62 194
e 122 208
e 34 132
e 120 135
e 180 186
e 39 210
e 166 251
e 125 250
e 139 148
e 37 137
e 78 138
e 23 202
e 138 189
e 83 253
e 157 202
e 50 76
e 69 89
e 55 154
e 201 245
e 160 207
e 113 132
e 25 248
e 13 194
e 99 197
e 118 210
e 159 248
e 30 97
e 90 148
e 131 149
e 76 213
e 117 251
e 35 212
e 134 191
e 34 253
e 194 205
e 20 89
e 111 207
e 105 133
e 50 197
e 108 138
e 41 148
e 113 253
e 187 202
e 247 253
e 25 140
e 11 205
e 85 154
e 30 218
e 44 153
e 164 218
e 38 79
e 57 92
e 76 105
e 117 143
e 43 157
e 103 208
e 29 30
e 15 95
e 120 148
e 20 210
e 106 213
e 59 138
e 97 164
e 50 89
e 96 205
e 182 208
e 99 210
e 118 223
e 11 97
e 52 98
e 71 148
e 112 149
e 57 213
e 131 162
e 76 226
e 175 205
e 87 92
e 133 208
e 152 221
e 50 210
e 91 211
e 110 224
e 30 231
e 38 92
e 43 170
e 103 221
e 189 224
e 15 108
e 101 111
e 106 226
e 147 227
e 100 152
e 119 165
e 12 39
e 31 52
e 91 103
e 163 208
e 22 232
e 182 221
e 77 168
e 75 95
e 94 108
e 80 173
e 140 224
e 33 98
e 52 111
e 38 213
e 112 162
e 98 227
e 10 114
e 15 229
e 156 168
e 101 232
e 133 221
e 174 222
e 193 235
e 12 160
e 86 109
e 31 173
e 91 224
e 177 227
e 110 237
e 89 114
e 75 216
e 94 229
e 168 178
e 52 232
e 126 181
e 186 232
e 79 106
e 10 235
e 170 224
e 189 237
e 82 111
e 68 176
e 142 162
e 87 226
e 21 101
e 147 240
e 100 165
e 119 178
e 86 230
e 89 235
e 22 245
e 163 221
e 223 235
e 75 108
e 42 160
e 77 181
e 80 186
e 33 111
e 74 112
e 19 176
e 79 227
e 46 50
e 10 127
e 137 168
e 82 232
e 156 181
e 95 171
e 114 184
e 155 222
e 7 58
e 174 235
e 67 109
e 26 71
e 31 186
e 158 227
e 70 114
e 89 127
e 75 229
e 149 178
e 42 52
e 135 243
e 28 117
e 88 168
e 33 232
e 107 181
e 148 182
e 52 245
e 93 246
e 19 68
e 46 171
e 10 248
e 51 249
e 49 176
e 68 189
e 109 227
e 169 241
e 67 230
e 141 179
e 86 243
e 172 246
e 70 235
e 58 181
e 37 58
e 204 235
e 42 173
e 116 122
e 61 186
e 102 187
e 47 251
e 14 74
e 181 251
e 74 125
e 19 189
e 93 138
e 79 240
e 165 243
e 13 115
e 137 181
e 51 141
e 123 246
e 35 133
e 95 184
e 81 249
e 155 235
e 114 197
e 34 174
e 67 122
e 158 240
e 37 179
e 70 127
e 116 243
e 88 181
e 129 182
e 74 246
e 148 195
e 41 69
e 60 82
e 46 184
e 44 74
e 90 190
e 35 254
e 150 241
e 123 138
e 169 254
e 122 142
e 26 205
e 67 243
e 34 66
e 153 246
e 125 184
e 70 248
e 111 249
e 185 198
e 37 71
e 245 249
e 23 136
e 226 236
e 83 187
e 28 251
e 102 200
e 143 201
e 229 241
e 14 87
e 96 126
e 55 88
e 60 203
e 99 131
e 159 182
e 104 246
e 11 18
e 76 147
e 117 185
e 136 198
e 62 249
e 241 251
e 34 187
e 120 190
e 20 252
e 180 241
e 199 254
e 111 141
e 97 206
e 138 244
e 23 28
e 50 131
e 14 208
e 41 82
e 113 187
e 13 249
e 132 200
e 173 201
e 25 74
e 44 87
e 85 88
e 71 190
e 30 152
e 150 254
e 29 193
e 62 141
e 134 246
e 122 155
e 106 147
e 92 249
e 166 198
e 185 211
e 50 252
e 83 200
e 55 101
e 96 139
e 127 206
e 41 203
e 44 208
e 118 157
e 11 31
e 38 134
e 30 44
e 57 147
e 76 160
e 117 198
e 136 211
e 15 150
e 120 203
e 139 216
e 221 255
e 180 254
e 59 193
e 133 142
e 110 158
e 113 200
e 154 201
e 25 87
e 66 88
e 11 152
e 30 165
e 112 204
e 71 203
e 131 217
e 43 104
e 29 206
e 103 155
e 15 42
e 87 147
e 106 160
e 166 211
e 18 47
e 59 85
e 78 98
e 105 201
e 210 217
e 77 102
e 108 206
e 22 166
e 168 220
e 25 208
e 80 107
e 85 222
e 38 147
e 57 160
e 184 201
e 43 225
e 222 227
e 15 163
e 142 204
e 59 206
e 133 155
e 119 220
e 31 107
e 91 158
e 196 211
e 110 171
e 75 150
e 22 58
e 94 163
e 66 101
e 11 165
e 112 217
e 198 220
e 131 230
e 10 169
e 43 117
e 115 222
e 87 160
e 147 174
e 207 225
e 31 228
e 191 217
e 210 230
e 58 102
e 77 115
e 22 179
e 61 107
e 66 222
e 107 223
e 140 171
e 126 236
e 52 58
e 19 110
e 98 174
e 10 61
e 51 62
e 82 166
e 142 217
e 73 117
e 100 220
e 31 120
e 58 223
e 75 163
e 116 164
e 61 228
e 176 215
e 28 51
e 88 102
e 33 166
e 52 179
e 179 220
e 46 105
e 10 182
e 137 223
e 156 236
e 114 239
e 188 225
e 100 112
e 67 164
e 26 126
e 12 228
e 191 230
e 86 177
e 70 169
e 89 182
e 61 120
e 88 223
e 47 185
e 107 236
e 181 185
e 126 249
e 162 172
e 19 123
e 79 174
e 165 177
e 46 226
e 51 75
e 82 179
e 123 180
e 68 244
e 183 231
e 35 67
e 202 244
e 95 118
e 155 169
e 114 131
e 141 234
e 26 247
e 12 120
e 42 228
e 116 177
e 61 241
e 102 242
e 135 190
e 14 129
e 88 115
e 74 180
e 19 244
e 93 193
e 47 77
e 5 80
e 46 118
e 137 236
e 51 196
e 156 249
e 68 136
e 150 175
e 95 239
e 35 188
e 114 252
e 67 177
e 12 241
e 213 231
e 172 193
e 20 65
e 232 244
e 39 78
e 70 182
e 89 195
e 42 120
e 28 185
e 102 134
e 88 236
e 129 237
e 148 250
e 60 137
e 46 239
e 132 242
e 13 62
e 44 129
e 104 180
e 123 193
e 183 244
e 35 80
e 62 183
e 95 131
e 141 247
e 227 250
e 39 199
e 185 253
e 37 126
e 97 140
e 157 191
e 102 255
e 69 78
e 74 193
e 201 234
e 160 196
e 220 247
e 13 183
e 118 199
e 159 237
e 90 137
e 35 201
e 150 188
e 95 252
e 136 253
e 62 75
e 134 180
e 34 242
e 153 193
e 213 244
e 20 78
e 92 183
e 125 131
e 111 196
e 37 247
e 171 247
e 212 248
e 23 83
e 83 134
e 28 198
e 129 250
e 215 253
e 41 137
e 127 140
e 60 150
e 113 242
e 132 255
e 25 129
e 13 75
e 44 142
e 104 193
e 71 245
e 164 207
e 117 132
e 62 196
e 122 210
e 208 250
e 34 134
e 120 137
e 20 199
e 139 150
e 125 252
e 166 253
e 39 212
e 37 139
e 78 140
e 97 153
e 83 255
e 69 91
e 96 194
e 55 156
e 201 247
e 242 248
e 113 134
e 13 196
e 99 199
e 25 250
e 118 212
e 159 250
e 11 86
e 30 99
e 71 137
e 90 150
e 57 202
e 117 253
e 76 215
e 134 193
e 34 255
e 175 194
e 194 207
e 92 196
e 152 210
e 50 199
e 110 213
e 196 253
e 108 140
e 22 100
e 127 153
e 113 255
e 187 204
e 11 207
e 85 156
e 30 220
e 164 220
e 57 94
e 43 159
e 103 210
e 122 223
e 15 97
e 87 202
e 106 215
e 59 140
e 78 153
e 23 217
e 119 154
e 163 197
e 55 169
e 182 210
e 96 207
e 22 221
e 99 212
e 140 213
e 11 99
e 52 100
e 38 202
e 131 164
e 76 228
e 43 51
e 29 153
e 115 156
e 15 218
e 175 207
e 133 210
e 152 223
e 193 224
e 31 162
e 50 212
e 91 213
e 105 148
e 110 226
e 108 153
e 22 113
e 94 218
e 149 154
e 66 156
e 11 220
e 85 169
e 126 170
e 186 221
e 38 94
e 98 108
e 43 172
e 170 213
e 103 223
e 189 226
e 101 113
e 106 228
e 147 229
e 59 153
e 100 154
e 12 41
e 91 105
e 163 210
e 22 234
e 182 223
e 77 170
e 75 97
e 61 162
e 80 175
e 140 226
e 33 100
e 52 113
e 38 215
e 112 164
e 98 229
e 24 51
e 10 116
e 82 221
e 15 231
e 101 234
e 115 169
e 114 173
e 174 224
e 26 60
e 67 98
e 86 111
e 193 237
e 12 162
e 91 226
e 31 175
e 70 103
e 94 231
e 168 180
e 135 232
e 47 119
e 33 221
e 107 170
e 52 234
e 126 183
e 88 157
e 19 57
e 79 108
e 10 237
e 189 239
e 82 113
e 68 178
e 142 164
e 147 242
e 26 181
e 141 168
e 86 232
e 89 237
e 204 224
e 77 183
e 223 237
e 42 162
e 80 188
e 47 240
e 181 240
e 33 113
e 93 127
e 79 229
e 165 232
e 46 52
e 10 129
e 137 170
e 82 234
e 156 183
e 95 173
e 114 186
e 155 224
e 174 237
e 67 111
e 12 175
e 158 229
e 177 242
e 218 243
e 70 116
e 75 231
e 116 232
e 135 245
e 28 119
e 88 170
e 47 132
e 107 183
e 148 184
e 93 248
e 33 234
e 19 70
e 60 71
e 46 173
e 10 250
e 51 251
e 211 240
e 104 114
e 68 191
e 109 229
e 169 243
e 62 117
e 67 232
e 86 245
e 39 133
e 125 173
e 70 237
e 89 250
e 37 60
e 204 237
e 42 175
e 83 176
e 28 240
e 47 253
e 162 240
e 14 76
e 19 191
e 165 245
e 13 117
e 51 143
e 178 184
e 137 183
e 104 235
e 123 248
e 35 135
e 95 186
e 136 187
e 39 254
e 199 243
e 92 117
e 171 181
e 116 245
e 157 246
e 28 132
e 14 197
e 129 184
e 74 248
e 148 197
e 234 237
e 41 71
e 160 251
e 113 176
e 13 238
e 46 186
e 132 189
e 44 76
e 104 127
e 150 243
e 134 235
e 67 245
e 153 248
e 34 68
e 39 146
e 70 250
e 125 186
e 185 200
e 111 251
e 245 251
e 23 138
e 166 187
e 28 253
e 69 254
e 143 203
e 229 243
e 102 202
e 14 89
e 55 90
e 60 205
e 187 246
e 99 133
e 159 184
e 11 20
e 178 197
e 35 148
e 76 149
e 117 187
e 62 251
e 29 74
e 34 189
e 20 254
e 139 205
e 180 243
e 20 25
e 37 194
e 111 143
e 97 208
e 50 133
e 14 210
e 129 197
e 96 249
e 55 211
e 22 34
e 113 189
e 13 251
e 99 254
e 132 202
e 25 76
e 173 203
e 44 89
e 11 141
e 30 154
e 85 90
e 217 246
e 131 206
e 43 93
e 134 248
e 122 157
e 106 149
e 166 200
e 59 74
e 185 213
e 78 87
e 226 251
e 105 190
e 50 254
e 96 141
e 41 205
e 127 208
e 55 103
e 25 197
e 44 210
e 85 211
e 159 197
e 11 33
e 38 136
e 57 149
e 117 200
e 29 87
e 120 205
e 78 208
e 97 221
e 91 147
e 110 160
e 55 224
e 196 200
e 22 47
e 94 152
e 85 103
e 71 205
e 112 206
e 29 208
e 103 157
e 115 211
e 15 44
e 87 149
e 106 162
e 188 201
e 59 87
e 105 203
e 191 206
e 77 104
e 108 208
e 22 168
e 127 221
e 168 222
e 80 109
e 140 160
e 85 224
e 126 225
e 38 149
e 57 162
e 184 203
e 43 227
e 98 163
e 15 165
e 101 168
e 59 208
e 119 222
e 12 96
e 31 109
e 91 160
e 77 225
e 75 152
e 94 165
e 80 230
e 33 155
e 66 103
e 52 168
e 115 224
e 156 225
e 68 112
e 109 150
e 147 176
e 207 227
e 86 166
e 31 230
e 210 232
e 58 104
e 89 171
e 22 181
e 149 222
e 168 235
e 42 96
e 61 109
e 80 122
e 66 224
e 107 225
e 33 47
e 19 112
e 79 163
e 24 227
e 98 176
e 82 168
e 101 181
e 183 220
e 95 107
e 114 120
e 100 222
e 119 235
e 12 109
e 31 122
e 158 163
e 42 217
e 116 166
e 176 217
e 135 179
e 80 243
e 47 66
e 33 168
e 107 117
e 52 181
e 93 182
e 179 222
e 46 107
e 10 184
e 51 185
e 137 225
e 68 125
e 109 163
e 95 228
e 114 241
e 67 166
e 12 230
e 86 179
e 31 243
e 172 182
e 58 117
e 70 171
e 89 184
e 149 235
e 190 236
e 42 109
e 61 122
e 28 174
e 88 225
e 162 174
e 47 187
e 148 239
e 181 187
e 102 123
e 19 125
e 60 126
e 46 228
e 165 179
e 13 51
e 51 77
e 82 181
e 123 182
e 68 246
e 202 246
e 35 69
e 95 120
e 81 185
e 114 133
e 141 236
e 26 249
e 34 110
e 125 228
e 158 176
e 37 115
e 42 230
e 116 179
e 61 243
e 176 230
e 28 66
e 88 117
e 14 131
e 74 182
e 19 246
e 179 235
e 239 249
e 5 82
e 46 120
e 51 198
e 178 239
e 197 252
e 49 125
e 35 190
e 150 177
e 95 241
e 169 190
e 114 254
e 134 169
e 34 231
e 153 182
e 67 179
e 232 246
e 20 67
e 39 80
e 70 184
e 56 249
e 171 236
e 190 249
e 231 250
e 14 252
e 47 200
e 129 239
e 14 23
e 148 252
e 41 126
e 60 139
e 46 241
e 132 244
e 44 131
e 104 182
e 164 196
e 35 82
e 76 83
e 62 185
e 141 249
e 227 252
e 34 123
e 20 188
e 125 241
e 185 255
e 97 142
e 138 180
e 157 193
e 50 67
e 69 80
e 41 247
e 201 236
e 160 198
e 220 249
e 113 123
e 13 185
e 132 136
e 44 252
e 118 201
e 159 239
e 178 252
e 71 126
e 30 88
e 35 203
e 117 242
e 136 255
e 62 77
e 29 129
e 153 195
e 120 247
e 20 80
e 92 185
e 37 249
e 111 198
e 171 249
e 212 250
e 23 85
e 50 188
e 69 201
e 143 150
e 129 252
e 41 139
e 127 142
e 113 244
e 187 193
e 25 131
e 71 247
e 38 70
e 57 83
e 76 96
e 117 134
e 62 198
e 103 199
e 122 212
e 208 252
e 15 86
e 120 139
e 20 201
e 139 152
e 106 204
e 166 255
e 180 190
e 59 129
e 23 206
e 138 193
e 97 155
e 50 80
e 55 158
e 96 196
e 160 211
e 113 136
e 13 198
e 99 201
e 25 252
e 159 252
e 11 88
e 71 139
e 112 140
e 57 204
e 131 153
e 117 255
e 76 217
e 30 101
e 29 142
e 175 196
e 92 198
e 133 199
e 152 212
e 105 137
e 50 201
e 196 255
e 110 215
e 108 142
e 22 102
e 127 155
e 85 158
e 186 210
e 38 83
e 57 96
e 103 212
e 189 215
e 122 225
e 15 99
e 87 204
e 106 217
e 59 142
e 78 155
e 119 156
e 31 43
e 77 159
e 22 223
e 182 212
e 163 199
e 75 86
e 94 99
e 80 164
e 140 215
e 52 102
e 38 204
e 57 217
e 131 166
e 98 218
e 10 105
e 115 158
e 15 220
e 101 223
e 87 96
e 193 226
e 86 100
e 105 150
e 31 164
e 91 215
e 110 228
e 108 155
e 75 207
e 22 115
e 66 158
e 11 222
e 52 223
e 107 159
e 126 172
e 186 223
e 19 46
e 79 97
e 98 110
e 43 174
e 170 215
e 10 226
e 189 228
e 82 102
e 142 153
e 87 217
e 101 115
e 147 231
e 100 156
e 119 169
e 12 43
e 58 159
e 3 223
e 163 212
e 77 172
e 182 225
e 223 226
e 22 236
e 61 164
e 80 177
e 140 228
e 181 229
e 33 102
e 52 115
e 93 116
e 79 218
e 38 217
e 98 231
e 137 159
e 82 223
e 101 236
e 73 174
e 114 175
e 155 213
e 174 226
e 67 100
e 12 164
e 86 113
e 31 177
e 193 239
e 91 228
e 177 231
e 158 218
e 70 105
e 89 118
e 149 169
e 135 234
e 88 159
e 33 223
e 107 172
e 93 237
e 126 185
e 46 162
e 79 110
e 10 239
e 82 115
e 68 180
e 109 218
e 147 244
e 100 169
e 141 170
e 86 234
e 67 221
e 26 183
e 70 226
e 58 172
e 89 239
e 204 226
e 42 164
e 61 177
e 102 178
e 47 242
e 162 229
e 181 242
e 74 116
e 93 129
e 79 231
e 165 234
e 51 132
e 82 236
e 123 237
e 137 172
e 156 185
e 95 175
e 114 188
e 7 62
e 67 113
e 12 177
e 53 178
e 177 244
e 218 245
e 116 234
e 9 108
e 135 247
e 28 121
e 47 134
e 129 173
e 88 172
e 148 186
e 33 236
e 60 73
e 46 175
e 51 253
e 211 242
e 104 116
e 49 180
e 123 129
e 109 231
e 68 193
e 150 232
e 169 245
e 26 196
e 153 237
e 141 183
e 172 250
e 67 234
e 39 135
e 70 239
e 125 175
e 89 252
e 42 177
e 83 178
e 102 191
e 47 255
e 162 242
e 74 129
e 41 181
e 60 194
e 165 247
e 13 119
e 44 186
e 159 173
e 104 237
e 118 135
e 123 250
e 35 137
e 95 188
e 62 240
e 180 232
e 199 245
e 92 119
e 37 183
e 111 132
e 97 197
e 116 247
e 157 248
e 171 183
e 28 134
e 69 135
e 14 199
e 129 186
e 74 250
e 148 199
e 160 253
e 60 86
e 13 240
e 132 191
e 44 78
e 71 181
e 90 194
e 150 245
e 236 248
e 62 132
e 134 237
e 153 250
e 34 70
e 20 135
e 39 148
e 92 240
e 125 188
e 18 25
e 37 75
e 185 202
e 23 140
e 83 191
e 28 255
e 55 92
e 41 194
e 127 197
e 60 207
e 187 248
e 25 186
e 99 135
e 13 132
e 159 186
e 44 199
e 11 22
e 178 199
e 30 35
e 118 148
e 57 138
e 117 189
e 136 202
e 34 191
e 120 194
e 139 207
e 37 196
e 78 197
e 97 210
e 138 248
e 50 135
e 110 149
e 96 251
e 55 213
e 113 191
e 13 253
e 173 205
e 25 78
e 66 79
e 11 143
e 71 194
e 90 207
e 217 248
e 131 208
e 43 95
e 122 159
e 15 33
e 87 138
e 166 202
e 59 76
e 78 89
e 23 153
e 143 218
e 22 157
e 96 143
e 127 210
e 108 197
e 55 105
e 25 199
e 66 200
e 140 149
e 99 148
e 38 138
e 117 202
e 76 164
e 29 89
e 15 154
e 120 207
e 59 197
e 78 210
e 119 211
e 31 98
e 91 149
e 196 202
e 110 162
e 55 226
e 94 154
e 154 205
e 173 218
e 66 92
e 85 105
e 52 157
e 112 208
e 131 221
e 43 108
e 29 210
e 115 213
e 106 164
e 188 203
e 59 89
e 105 205
e 191 208
e 210 221
e 58 93
e 77 106
e 22 170
e 149 211
e 108 210
e 61 98
e 121 149
e 140 162
e 85 226
e 200 213
e 126 227
e 79 152
e 184 205
e 98 165
e 43 229
e 10 52
e 82 157
e 101 170
e 142 208
e 202 222
e 100 211
e 12 98
e 31 111
e 17 213
e 91 162
e 77 227
e 135 168
e 80 232
e 176 206
e 33 157
e 52 170
e 179 211
e 112 221
e 198 224
e 156 227
e 109 152
e 147 178
e 26 117
e 86 168
e 31 232
e 191 221
e 58 106
e 89 173
e 77 119
e 149 224
e 168 237
e 61 111
e 47 176
e 107 227
e 126 240
e 19 114
e 79 165
e 165 168
e 98 178
e 51 66
e 82 170
e 68 235
e 183 222
e 101 183
e 202 235
e 142 221
e 95 109
e 155 160
e 100 224
e 141 225
e 12 111
e 158 165
e 58 227
e 77 240
e 116 168
e 61 232
e 135 181
e 80 245
e 28 55
e 47 68
e 33 170
e 107 119
e 19 235
e 179 224
e 74 171
e 198 237
e 93 184
e 46 109
e 88 106
e 10 186
e 51 187
e 137 227
e 156 240
e 197 241
e 109 165
e 68 127
e 95 230
e 169 179
e 114 243
e 67 168
e 12 232
e 86 181
e 31 245
e 172 184
e 213 222
e 39 69
e 70 173
e 89 186
e 171 225
e 42 111
e 83 112
e 28 176
e 88 227
e 107 240
e 148 241
e 19 127
e 46 230
e 68 248
e 16 58
e 183 235
e 35 71
e 95 122
e 26 251
e 34 112
e 125 230
e 39 190
e 37 117
e 42 232
e 116 181
e 157 182
e 9 55
e 28 68
e 14 133
e 74 184
e 19 248
e 60 249
e 220 238
e 93 197
e 239 251
e 13 174
e 137 240
e 51 200
e 178 241
e 197 254
e 150 179
e 95 243
e 67 181
e 153 184
e 213 235
e 172 197
e 20 69
e 39 82
e 70 186
e 111 187
e 23 74
e 190 251
e 83 125
e 102 138
e 14 254
e 129 241
e 69 190
e 14 25
e 148 254
e 146 181
e 46 243
e 132 246
e 60 141
e 25 120
e 13 66
e 44 133
e 104 184
e 49 248
e 90 249
e 164 198
e 123 197
e 76 85
e 62 187
e 117 123
e 208 241
e 122 201
e 227 254
e 34 125
e 20 190
e 39 203
e 125 243
e 166 244
e 78 131
e 138 182
e 83 246
e 50 69
e 69 82
e 55 147
e 41 249
e 160 200
e 96 185
e 220 251
e 113 125
e 13 187
e 99 190
e 132 138
e 118 203
e 44 254
e 178 254
e 11 77
e 30 90
e 159 241
e 90 141
e 131 142
e 117 244
e 29 131
e 134 184
e 34 246
e 120 249
e 153 197
e 20 82
e 92 187
e 37 251
e 105 126
e 50 190
e 69 203
e 143 152
e 129 254
e 108 131
e 41 141
e 113 246
e 206 208
e 25 133
e 11 198
e 85 147
e 71 249
e 145 198
e 30 211
e 164 211
e 57 85
e 76 98
e 29 252
e 103 201
e 43 150
e 208 254
e 117 136
e 15 88
e 62 200
e 120 141
e 20 203
e 106 206
e 59 131
e 23 208
e 105 247
e 97 157
e 50 82
e 96 198
e 182 201
e 242 252
e 25 254
e 99 203
e 159 254
e 200 255
e 71 141
e 112 142
e 38 193
e 57 206
e 115 147
e 175 198
e 59 252
e 133 201
e 92 200
e 45 88
e 105 139
e 50 203
e 110 217
e 22 104
e 127 157
e 85 160
e 30 224
e 186 212
e 38 85
e 79 86
e 43 163
e 189 217
e 230 255
e 15 101
e 101 104
e 87 206
e 147 220
e 91 96
e 163 201
e 22 225
e 75 88
e 94 101
e 80 166
e 140 217
e 33 91
e 52 104
e 38 206
e 112 155
e 98 220
e 10 107
e 115 160
e 101 225
e 193 228
e 12 153
e 31 166
e 177 220
e 110 230
e 89 107
e 22 117
e 149 158
e 66 160
e 33 212
e 52 225
e 126 174
e 186 225
e 79 99
e 170 217
e 189 230
e 82 104
e 100 158
e 86 223
e 119 171
e 31 58
e 89 228
e 77 174
e 223 228
e 42 153
e 75 101
e 61 166
e 80 179
e 140 230
e 181 231
e 19 169
e 93 118
e 79 220
e 10 120
e 82 225
e 156 174
e 95 164
e 155 215
e 174 228
e 67 102
e 12 166
e 86 115
e 31 179
e 158 220
e 89 120
e 75 222
e 116 223
e 149 171
e 135 236
e 28 110
e 107 174
e 148 175
e 93 239
e 19 61
e 5 126
e 46 164
e 151 180
e 10 241
e 170 230
e 211 231
e 51 242
e 68 182
e 109 220
e 169 234
e 26 185
e 141 172
e 86 236
e 34 46
e 172 239
e 67 223
e 125 164
e 70 228
e 144 177
e 89 241
e 37 51
e 58 174
e 223 241
e 42 166
e 28 231
e 102 180
e 61 179
e 162 231
e 14 67
e 74 118
e 19 182
e 93 131
e 137 174
e 51 134
e 123 239
e 35 126
e 155 228
e 114 190
e 26 77
e 70 120
e 37 172
e 116 236
e 135 249
e 28 123
e 88 174
e 129 175
e 74 239
e 14 188
e 41 62
e 60 75
e 46 177
e 51 255
e 44 67
e 211 244
e 104 118
e 123 131
e 35 247
e 90 183
e 169 247
e 67 236
e 153 239
e 26 198
e 34 59
e 141 185
e 172 252
e 39 137
e 125 177
e 111 242
e 70 241
e 23 129
e 83 180
e 28 244
e 143 194
e 162 244
e 229 234
e 14 80
e 41 183
e 146 236
e 60 196
e 165 249
e 206 250
e 159 175
e 118 137
e 104 239
e 123 252
e 197 201
e 178 188
e 164 253
e 35 139
e 117 178
e 62 242
e 136 191
e 34 180
e 120 183
e 20 245
e 139 196
e 180 234
e 37 185
e 23 250
e 138 237
e 97 199
e 157 250
e 69 137
e 14 201
e 129 188
e 74 252
e 160 255
e 41 75
e 113 180
e 13 242
e 132 193
e 173 194
e 25 67
e 71 183
e 90 196
e 150 247
e 236 250
e 62 134
e 103 135
e 134 239
e 153 252
e 15 22
e 20 137
e 106 140
e 39 150
e 166 191
e 92 242
e 185 204
e 245 255
e 23 142
e 50 245
e 55 94
e 41 196
e 127 199
e 25 188
e 13 134
e 44 201
e 118 150
e 104 252
e 11 24
e 159 188
e 30 37
e 71 75
e 57 140
e 99 137
e 117 191
e 76 153
e 136 204
e 62 255
e 29 78
e 120 196
e 180 247
e 221 248
e 92 134
e 59 186
e 78 199
e 97 212
e 138 250
e 224 253
e 50 137
e 69 150
e 55 215
e 96 253
e 113 193
e 13 255
e 154 194
e 173 207
e 85 94
e 71 196
e 112 197
e 217 250
e 43 97
e 29 199
e 103 148
e 134 252
e 175 253
e 115 202
e 15 35
e 106 153
e 166 204
e 59 78
e 105 194
e 22 159
e 108 199
e 127 212
e 168 213
e 25 201
e 66 202
e 80 100
e 99 150
e 38 140
e 57 153
e 184 194
e 98 154
e 43 218
e 10 41
e 15 156
e 142 197
e 101 159
e 59 199
e 78 212
e 119 213
e 31 100
e 110 164
e 55 228
e 22 51
e 75 143
e 94 156
e 154 207
e 66 94
e 11 158
e 52 159
e 112 210
e 198 213
e 131 223
e 10 162
e 43 110
e 115 215
e 87 153
e 73 218
e 188 205
e 105 207
e 191 210
e 210 223
e 58 95
e 77 108
e 108 212
e 22 172
e 168 226
e 61 100
e 80 113
e 66 215
e 126 229
e 19 103
e 38 153
e 79 154
e 184 207
e 43 231
e 82 159
e 101 172
e 142 210
e 202 224
e 100 213
e 119 226
e 12 100
e 31 113
e 91 164
e 77 229
e 75 156
e 94 169
e 176 208
e 80 234
e 61 221
e 47 57
e 33 159
e 52 172
e 179 213
e 93 173
e 46 98
e 10 175
e 109 154
e 73 231
e 147 180
e 114 232
e 188 218
e 100 105
e 26 119
e 86 170
e 31 234
e 191 223
e 67 157
e 58 108
e 70 162
e 89 175
e 149 226
e 190 227
e 42 100
e 61 113
e 102 114
e 47 178
e 107 229
e 126 242
e 19 116
e 165 170
e 51 68
e 82 172
e 68 237
e 183 224
e 35 60
e 21 162
e 202 237
e 155 162
e 100 226
e 141 227
e 26 240
e 12 113
e 58 229
e 77 242
e 42 221
e 116 170
e 61 234
e 135 183
e 176 221
e 28 57
e 47 70
e 88 108
e 74 173
e 19 237
e 93 186
e 14 122
e 33 172
e 239 240
e 51 189
e 137 229
e 156 242
e 35 181
e 150 168
e 68 129
e 169 181
e 114 245
e 95 232
e 26 132
e 153 173
e 86 183
e 12 234
e 172 186
e 39 71
e 89 188
e 190 240
e 42 113
e 83 114
e 28 178
e 102 127
e 88 229
e 162 178
e 129 230
e 148 243
e 41 117
e 46 232
e 13 55
e 104 173
e 49 237
e 123 186
e 68 250
e 183 237
e 62 176
e 26 253
e 141 240
e 34 114
e 125 232
e 37 119
e 97 133
e 83 235
e 157 184
e 102 248
e 14 135
e 74 186
e 201 227
e 60 251
e 220 240
e 160 189
e 13 176
e 51 202
e 71 117
e 35 194
e 150 181
e 95 245
e 169 194
e 136 246
e 62 68
e 134 173
e 34 235
e 153 186
e 139 251
e 172 199
e 20 71
e 92 176
e 37 240
e 111 189
e 171 240
e 212 241
e 23 76
e 231 254
e 83 127
e 28 191
e 129 243
e 215 246
e 127 133
e 146 183
e 113 235
e 60 143
e 25 122
e 44 135
e 104 186
e 164 200
e 57 74
e 62 189
e 208 243
e 122 203
e 34 127
e 39 205
e 166 246
e 125 245
e 78 133
e 23 197
e 138 184
e 83 248
e 157 197
e 50 71
e 55 149
e 41 251
e 201 240
e 160 202
e 113 127
e 13 189
e 25 243
e 159 243
e 118 205
e 11 79
e 30 92
e 90 143
e 117 246
e 76 208
e 29 133
e 134 186
e 34 248
e 120 251
e 194 200
e 175 187
e 92 189
e 111 202
e 152 203
e 78 254
e 212 254
e 23 89
e 69 205
e 196 246
e 110 206
e 22 93
e 113 248
e 187 197
e 25 135
e 66 136
e 71 251
e 30 213
e 164 213
e 38 74
e 57 87
e 117 138
e 29 254
e 43 152
e 103 203
e 15 90
e 87 195
e 120 143
e 20 205
e 106 208
e 59 133
e 23 210
e 105 249
e 138 197
e 119 147
e 31 34
e 55 162
e 96 200
e 182 203
e 242 254
e 99 205
e 140 206
e 11 92
e 52 93
e 131 157
e 115 149
e 15 211
e 175 200
e 194 213
e 59 254
e 133 203
e 105 141
e 50 205
e 91 206
e 94 211
e 66 149
e 11 213
e 85 162
e 126 163
e 38 87
e 79 88
e 43 165
e 170 206
e 82 93
e 15 103
e 101 106
e 87 208
e 106 221
e 147 222
e 100 147
e 119 160
e 12 34
e 91 98
e 58 150
e 163 203
e 22 227
e 61 155
e 94 103
e 80 168
e 52 106
e 38 208
e 112 157
e 98 222
e 10 109
e 15 224
e 101 227
e 54 152
e 114 166
e 174 217
e 193 230
e 86 104
e 31 168
e 177 222
e 89 109
e 75 211
e 94 224
e 135 225
e 88 150
e 47 112
e 52 227
e 126 176
e 186 227
e 19 50
e 79 101
e 10 230
e 189 232
e 68 171
e 142 157
e 147 235
e 100 160
e 86 225
e 12 47
e 58 163
e 89 230
e 77 176
e 223 230
e 42 155
e 61 168
e 80 181
e 162 220
e 33 106
e 74 107
e 19 171
e 93 120
e 165 225
e 98 235
e 10 122
e 137 163
e 82 227
e 156 176
e 101 240
e 95 166
e 155 217
e 114 179
e 26 66
e 12 168
e 86 117
e 67 104
e 177 235
e 70 109
e 89 122
e 75 224
e 116 225
e 42 47
e 28 112
e 88 163
e 47 125
e 74 228
e 148 177
e 33 227
e 93 241
e 46 166
e 10 243
e 51 244
e 68 184
e 109 222
e 169 236
e 67 225
e 141 174
e 172 241
e 39 126
e 70 230
e 144 179
e 89 243
e 204 230
e 83 169
e 102 182
e 47 246
e 181 246
e 14 69
e 74 120
e 19 184
e 60 185
e 46 58
e 13 110
e 137 176
e 104 228
e 51 136
e 123 241
e 95 179
e 136 180
e 155 230
e 34 169
e 53 182
e 139 185
e 158 235
e 39 247
e 199 236
e 218 249
e 70 122
e 37 174
e 111 123
e 157 239
e 28 125
e 69 126
e 14 190
e 129 177
e 74 241
e 148 190
e 93 254
e 60 77
e 13 231
e 132 182
e 46 179
e 44 69
e 211 246
e 123 133
e 35 249
e 150 236
e 90 185
e 169 249
e 62 123
e 134 228
e 67 238
e 122 137
e 153 241
e 34 61
e 26 200
e 172 254
e 20 126
e 39 139
e 166 180
e 111 244
e 185 193
e 37 66
e 70 243
e 23 131
e 125 179
e 83 182
e 28 246
e 69 247
e 143 196
e 14 82
e 55 83
e 60 198
e 206 252
e 13 123
e 99 126
e 159 177
e 104 241
e 118 139
e 123 254
e 164 255
e 178 190
e 35 141
e 76 142
e 117 180
e 62 244
e 29 67
e 34 182
e 120 185
e 20 247
e 180 236
e 139 198
e 199 249
e 240 250
e 92 123
e 37 187
e 111 136
e 23 252
e 97 201
e 138 239
e 157 252
e 243 255
e 50 126
e 69 139
e 14 203
e 55 204
e 41 77
e 113 182
e 13 244
e 99 247
e 173 196
e 25 69
e 44 82
e 11 134
e 71 185
e 30 147
e 90 198
e 150 249
e 43 86
e 62 136
e 134 241
e 122 150
e 153 254
e 194 255
e 20 139
e 106 142
e 92 244
e 166 193
e 185 206
e 59 67
e 226 244
e 78 80
e 105 183
e 50 247
e 229 249
e 96 134
e 41 198
e 127 201
e 108 188
e 55 96
e 187 252
e 99 139
e 44 203
e 118 152
e 85 204
e 159 190
e 71 77
e 57 142
e 117 193
e 76 155
e 29 80
e 120 198
e 180 249
e 221 250
e 59 188
e 133 137
e 78 201
e 138 252
e 224 255
e 50 139
e 91 140
e 110 153
e 96 255
e 154 196
e 11 147
e 71 198
e 112 199
e 38 250
e 131 212
e 217 252
e 30 160
e 29 201
e 115 204
e 103 150
e 175 255
e 15 37
e 87 142
e 106 155
e 188 194
e 147 156
e 59 80
e 105 196
e 191 199
e 77 97
e 108 201
e 168 215
e 121 140
e 66 204
e 85 217
e 38 142
e 57 155
e 98 156
e 43 220
e 10 43
e 59 201
e 133 150
e 119 215
e 205 255
e 12 89
e 91 153
e 110 166
e 80 223
e 33 148
e 66 96
e 112 212
e 10 164
e 115 217
e 87 155
e 188 207
e 147 169
e 207 220
e 86 159
e 191 212
e 210 225
e 58 97
e 77 110
e 22 174
e 149 215
e 89 164
e 168 228
e 42 89
e 61 102
e 80 115
e 66 217
e 140 166
e 107 218
e 126 231
e 19 105
e 79 156
e 184 209
e 98 169
e 51 57
e 142 212
e 101 174
e 183 213
e 95 100
e 100 215
e 119 228
e 12 102
e 31 115
e 58 218
e 77 231
e 75 158
e 116 159
e 61 223
e 135 172
e 176 210
e 28 46
e 80 236
e 88 97
e 47 59
e 52 174
e 93 175
e 19 226
e 179 215
e 198 228
e 46 100
e 10 177
e 51 178
e 137 218
e 156 231
e 68 118
e 109 156
e 114 234
e 67 159
e 12 223
e 86 172
e 31 236
e 70 164
e 89 177
e 149 228
e 190 229
e 42 102
e 61 115
e 47 180
e 107 231
e 126 244
e 19 118
e 60 119
e 79 169
e 46 221
e 51 70
e 82 174
e 123 175
e 68 239
e 183 226
e 35 62
e 202 239
e 95 113
e 114 126
e 26 242
e 141 229
e 34 103
e 158 169
e 58 231
e 42 223
e 135 185
e 176 223
e 28 59
e 102 237
e 74 175
e 19 239
e 93 188
e 220 229
e 179 228
e 239 242
e 46 113
e 137 231
e 51 191
e 35 183
e 150 170
e 95 234
e 169 183
e 114 247
e 109 169
e 67 172
e 12 236
e 26 134
e 213 226
e 70 177
e 111 178
e 171 229
e 190 242
e 83 116
e 28 180
e 102 129
e 14 245
e 162 180
e 129 232
e 148 245
e 88 231
e 41 119
e 60 132
e 46 234
e 132 237
e 165 185
e 13 57
e 104 175
e 123 188
e 68 252
e 164 189
e 35 75
e 62 178
e 26 255
e 141 242
e 227 245
e 34 116
e 39 194
e 23 186
e 42 236
e 97 135
e 138 173
e 157 186
e 50 60
e 83 237
e 102 250
e 14 137
e 74 188
e 41 240
e 201 229
e 220 242
e 160 191
e 60 253
e 13 178
e 44 245
e 159 232
e 118 194
e 178 245
e 90 132
e 35 196
e 76 197
e 150 183
e 136 248
e 95 247
e 62 70
e 29 122
e 48 135
e 34 237
e 134 175
e 153 188
e 139 253
e 39 86
e 37 242
e 111 191
e 171 242
e 212 243
e 23 78
e 50 181
e 83 129
e 69 194
e 129 245
e 215 248
e 41 132
e 127 135
e 113 237
e 132 250
e 44 137
e 85 138
e 30 202
e 71 240
e 164 202
e 57 76
e 117 127
e 62 191
e 208 245
e 122 205
e 120 132
e 106 197
e 39 207
e 166 248
e 78 135
e 23 199
e 97 148
e 83 250
e 157 199
e 69 86
e 41 253
e 201 242
e 160 204
e 113 129
e 13 191
e 25 245
e 159 245
e 118 207
e 200 246
e 112 133
e 57 197
e 76 210
e 117 248
e 29 135
e 115 138
e 134 188
e 15 200
e 120 253
e 92 191
e 37 255
e 152 205
e 45 79
e 50 194
e 69 207
e 196 248
e 110 208
e 108 135
e 127 148
e 113 250
e 154 251
e 66 138
e 11 202
e 30 215
e 71 253
e 186 203
e 38 76
e 57 89
e 43 154
e 103 205
e 189 208
e 122 218
e 15 92
e 106 210
e 59 135
e 78 148
e 119 149
e 96 202
e 182 205
e 99 207
e 140 208
e 11 94
e 52 95
e 38 197
e 57 210
e 184 251
e 131 159
e 98 211
e 43 46
e 10 98
e 15 213
e 175 202
e 87 89
e 73 154
e 152 218
e 105 143
e 91 208
e 110 221
e 75 200
e 108 148
e 22 108
e 94 213
e 107 152
e 11 215
e 186 216
e 19 39
e 170 208
e 82 95
e 101 108
e 87 210
e 147 224
e 100 149
e 119 162
e 58 152
e 77 165
e 22 229
e 163 205
e 182 218
e 75 92
e 61 157
e 94 105
e 80 170
e 181 222
e 33 95
e 52 108
e 38 210
e 79 211
e 10 111
e 156 165
e 155 206
e 114 168
e 193 232
e 67 93
e 86 106
e 31 170
e 158 211
e 91 221
e 75 213
e 149 162
e 94 226
e 135 227
e 47 114
e 107 165
e 126 178
e 93 230
e 19 52
e 10 232
e 170 221
e 211 222
e 82 108
e 109 211
e 147 237
e 100 162
e 26 176
e 141 163
e 86 227
e 58 165
e 89 232
e 223 232
e 42 157
e 47 235
e 80 183
e 14 58
e 33 108
e 74 109
e 19 173
e 93 122
e 79 224
e 165 227
e 181 235
e 51 125
e 82 229
e 156 178
e 137 165
e 123 230
e 35 117
e 95 168
e 114 181
e 174 232
e 26 68
e 12 170
e 86 119
e 67 106
e 158 224
e 177 237
e 70 111
e 9 101
e 135 240
e 28 114
e 47 127
e 129 166
e 88 165
e 148 179
e 93 243
e 33 229
e 74 230
e 60 66
e 46 168
e 132 171
e 51 246
e 44 58
e 68 186
e 150 225
e 109 224
e 62 112
e 67 227
e 153 230
e 86 240
e 172 243
e 141 176
e 125 168
e 70 232
e 89 245
e 83 171
e 28 235
e 102 184
e 47 248
e 19 186
e 60 187
e 165 240
e 13 112
e 159 166
e 51 138
e 104 230
e 123 243
e 95 181
e 136 182
e 34 171
e 180 225
e 39 249
e 92 112
e 37 176
e 218 251
e 116 240
e 157 241
e 28 127
e 129 179
e 74 243
e 160 246
e 41 66
e 60 79
e 113 171
e 132 184
e 25 58
e 151 197
e 44 71
e 118 249
e 30 136
e 90 187
e 236 241
e 169 251
e 62 125
e 134 230
e 122 139
e 153 243
e 39 141
e 125 181
e 111 246
e 37 68
e 83 184
e 28 248
e 69 249
e 55 85
e 60 200
e 187 241
e 13 125
e 25 179
e 159 179
e 104 243
e 118 141
e 57 131
e 62 246
e 29 69
e 34 184
e 20 249
e 139 200
e 199 251
e 240 252
e 92 125
e 37 189
e 78 190
e 111 138
e 97 203
e 138 241
e 157 254
e 69 141
e 110 142
e 55 206
e 96 244
e 22 29
e 113 184
e 13 246
e 154 185
e 173 198
e 99 249
e 25 71
e 11 136
e 30 149
e 71 187
e 57 252
e 131 201
e 43 88
e 29 190
e 103 139
e 134 243
e 175 244
e 122 152
e 87 131
e 20 141
e 92 246
e 59 69
e 226 246
e 78 82
e 105 185
e 50 249
e 143 211
e 229 251
e 96 136
e 41 200
e 127 203
e 55 98
e 187 254
e 108 190
e 44 205
e 85 206
e 11 28
e 38 131
e 29 82
e 15 147
e 120 200
e 87 252
e 221 252
e 59 190
e 133 139
e 78 203
e 205 244
e 97 216
e 138 254
e 31 91
e 50 141
e 91 142
e 110 155
e 3 29
e 22 42
e 94 147
e 154 198
e 173 211
e 66 85
e 11 149
e 52 150
e 38 252
e 112 201
e 85 98
e 217 254
e 43 101
e 103 152
e 115 206
e 106 157
e 147 158
e 188 196
e 59 82
e 105 198
e 191 201
e 17 85
e 58 86
e 77 99
e 22 163
e 168 217
e 61 91
e 66 206
e 140 155
e 126 220
e 184 198
e 43 222
e 203 211
e 98 158
e 82 150
e 15 160
e 101 163
e 142 201
e 59 203
e 133 152
e 100 204
e 119 217
e 12 91
e 31 104
e 75 147
e 94 160
e 176 199
e 80 225
e 33 150
e 179 204
e 198 217
e 10 166
e 68 107
e 58 99
e 77 112
e 89 166
e 149 217
e 168 230
e 42 91
e 61 104
e 80 117
e 47 169
e 107 220
e 33 42
e 19 107
e 98 171
e 82 163
e 68 228
e 183 215
e 101 176
e 202 228
e 95 102
e 100 217
e 12 104
e 58 220
e 75 160
e 42 212
e 61 225
e 135 174
e 176 212
e 47 61
e 88 99
e 19 228
e 93 177
e 179 217
e 10 179
e 51 180
e 137 220
e 68 120
e 109 158
e 114 236
e 26 123
e 12 225
e 86 174
e 172 177
e 39 62
e 70 166
e 89 179
e 190 231
e 42 104
e 83 105
e 28 169
e 47 182
e 162 169
e 88 220
e 148 234
e 19 120
e 46 223
e 165 174
e 13 46
e 104 164
e 123 177
e 68 241
e 183 228
e 21 166
e 95 115
e 155 166
e 141 231
e 34 105
e 125 223
e 37 110
e 42 225
e 116 174
e 157 175
e 102 239
e 28 61
e 14 126
e 74 177
e 201 218
e 160 180
e 220 231
e 60 242
e 19 241
e 93 190
e 46 115
e 51 193
e 178 234
e 197 247
e 35 185
e 150 172
e 95 236
e 114 249
e 134 164
e 67 174
e 20 62
e 39 75
e 70 179
e 37 231
e 171 231
e 190 244
e 83 118
e 28 182
e 69 183
e 102 131
e 129 234
e 14 247
e 148 247
e 60 134
e 46 236
e 132 239
e 25 113
e 44 126
e 104 177
e 90 242
e 123 190
e 35 77
e 62 180
e 208 234
e 122 194
e 227 247
e 20 183
e 39 196
e 144 249
e 185 250
e 37 123
e 23 188
e 97 137
e 138 175
e 157 188
e 102 252
e 50 62
e 143 253
e 69 75
e 14 139
e 83 239
e 96 178
e 201 231
e 160 193
e 55 140
e 13 180
e 99 183
e 118 196
e 159 234
e 11 70
e 178 247
e 30 83
e 90 134
e 35 198
e 117 237
e 76 199
e 136 250
e 150 185
e 48 137
e 134 177
e 34 239
e 120 242
e 139 255
e 153 190
e 20 75
e 92 180
e 111 193
e 152 194
e 212 245
e 23 80
e 105 119
e 50 183
e 69 196
e 129 247
e 41 134
e 127 137
e 113 239
e 132 252
e 173 253
e 25 126
e 11 191
e 85 140
e 71 242
e 30 204
e 90 255
e 164 204
e 57 78
e 76 91
e 29 245
e 103 194
e 62 193
e 122 207
e 208 247
e 117 129
e 120 134
e 20 196
e 106 199
e 180 185
e 166 250
e 78 137
e 23 201
e 97 150
e 83 252
e 55 153
e 182 194
e 96 191
e 159 247
e 11 83
e 71 134
e 38 186
e 30 96
e 131 148
e 76 212
e 117 250
e 57 199
e 112 135
e 29 137
e 115 140
e 15 202
e 120 255
e 194 204
e 59 245
e 133 194
e 92 193
e 152 207
e 105 132
e 50 196
e 91 197
e 110 210
e 196 250
e 22 97
e 108 137
e 94 202
e 113 252
e 154 253
e 66 140
e 11 204
e 85 153
e 71 255
e 30 217
e 186 205
e 38 78
e 57 91
e 43 156
e 103 207
e 189 210
e 230 248
e 106 212
e 147 213
e 59 137
e 105 253
e 31 38
e 163 194
e 22 218
e 77 154
e 80 159
e 140 210
e 52 97
e 38 199
e 112 148
e 57 212
e 184 253
e 98 213
e 10 100
e 115 153
e 175 204
e 101 218
e 87 91
e 133 207
e 174 208
e 193 221
e 91 210
e 177 213
e 110 223
e 89 100
e 75 202
e 22 110
e 94 215
e 33 205
e 107 154
e 19 41
e 186 218
e 79 92
e 98 105
e 10 221
e 170 210
e 189 223
e 82 97
e 142 148
e 87 212
e 101 110
e 147 226
e 119 164
e 12 38
e 31 51
e 58 154
e 3 218
e 163 207
e 22 231
e 89 221
e 204 208
e 61 159
e 80 172
e 140 223
e 181 224
e 19 162
e 52 110
e 79 213
e 93 111
e 10 113
e 137 154
e 82 218
e 155 208
e 174 221
e 26 57
e 193 234
e 86 108
e 31 172
e 158 213
e 12 159
e 67 95
e 177 226
e 70 100
e 75 215
e 135 229
e 28 103
e 88 154
e 33 218
e 47 116
e 52 231
e 93 232
e 79 105
e 46 157
e 10 234
e 170 223
e 211 224
e 82 110
e 68 175
e 109 213
e 169 227
e 26 178
e 86 229
e 172 232
e 125 157
e 70 221
e 89 234
e 223 234
e 42 159
e 102 173
e 47 237
e 162 224
e 181 237
e 14 60
e 74 111
e 19 175
e 79 226
e 51 127
e 82 231
e 123 232
e 95 170
e 155 221
e 114 183
e 7 57
e 67 108
e 12 172
e 26 70
e 218 240
e 70 113
e 111 114
e 135 242
e 28 116
e 47 129
e 129 168
e 74 232
e 148 181
e 93 245
e 41 55
e 14 181
e 60 68
e 46 170
e 132 173
e 51 248
e 211 237
e 35 240
e 150 227
e 109 226
e 169 240
e 68 188
e 62 114
e 26 191
e 153 232
e 67 229
e 34 52
e 172 245
e 20 117
e 125 170
e 70 234
e 111 235
e 37 57
e 23 122
e 83 173
e 28 237
e 102 186
e 47 250
e 162 237
e 55 74
e 41 176
e 60 189
e 165 242
e 206 243
e 13 114
e 44 181
e 159 168
e 123 245
e 164 246
e 76 133
e 62 235
e 117 171
e 29 58
e 34 173
e 180 227
e 39 251
e 199 240
e 92 114
e 37 178
e 218 253
e 138 230
e 171 178
e 157 243
e 50 117
e 14 194
e 129 181
e 74 245
e 160 248
e 41 68
e 113 173
e 13 235
e 132 186
e 25 60
e 118 251
e 30 138
e 71 176
e 90 189
e 35 253
e 150 240
e 236 243
e 134 232
e 122 141
e 153 245
e 194 246
e 106 133
e 92 235
e 39 143
e 166 184
e 245 248
e 50 238
e 69 251
e 143 200
e 96 125
e 41 189
e 55 87
e 60 202
e 25 181
e 13 127
e 118 143
e 104 245
e 159 181
e 57 133
e 117 184
e 62 248
e 103 249
e 136 197
e 29 71
e 15 136
e 120 189
e 20 251
e 139 202
e 221 241
e 180 240
e 240 254
e 92 127
e 37 191
e 97 205
e 224 246
e 69 143
e 55 208
e 96 246
e 113 186
e 13 248
e 99 251
e 173 200
e 154 187
e 11 138
e 71 189
e 90 202
e 217 243
e 57 254
e 43 90
e 103 141
e 134 245
e 175 246
e 122 154
e 15 28
e 87 133
e 92 248
e 166 197
e 105 187
e 50 251
e 143 213
e 96 138
e 22 152
e 127 205
e 99 143
e 85 208
e 38 133
e 98 147
e 43 211
e 15 149
e 101 152
e 87 254
e 221 254
e 78 205
e 205 246
e 119 206
e 31 93
e 163 249
e 55 221
e 110 157
e 22 44
e 94 149
e 154 200
e 52 152
e 112 203
e 43 103
e 29 205
e 115 208
e 73 211
e 147 160
e 188 198
e 207 211
e 191 203
e 58 88
e 22 165
e 149 206
e 61 93
e 80 106
e 85 221
e 126 222
e 79 147
e 24 211
e 184 200
e 43 224
e 98 160
e 10 47
e 82 152
e 142 203
e 202 217
e 59 205
e 100 206
e 31 106
e 91 157
e 77 222
e 75 149
e 94 162
e 80 227
e 47 50
e 33 152
e 93 166
e 179 206
e 46 91
e 10 168
e 115 221
e 156 222
e 68 109
e 109 147
e 188 211
e 114 225
e 147 173
e 67 150
e 26 112
e 86 163
e 31 227
e 70 155
e 58 101
e 89 168
e 42 93
e 61 106
e 102 107
e 47 171
e 107 222
e 33 44
e 126 235
e 19 109
e 79 160
e 24 224
e 51 61
e 82 165
e 123 166
e 68 230
e 183 217
e 202 230
e 95 104
e 12 106
e 158 160
e 58 222
e 77 235
e 116 163
e 61 227
e 135 176
e 80 240
e 28 50
e 88 101
e 33 165
e 74 166
e 19 230
e 46 104
e 137 222
e 51 182
e 156 235
e 197 236
e 109 160
e 68 122
e 95 225
e 35 174
e 26 125
e 12 227
e 86 176
e 67 163
e 172 179
e 213 217
e 89 181
e 171 220
e 28 171
e 102 120
e 88 222
e 148 236
e 60 123
e 46 225
e 104 166
e 123 179
e 68 243
e 35 66
e 95 117
e 26 246
e 227 236
e 53 120
e 125 225
e 39 185
e 37 112
e 42 227
e 83 228
e 157 177
e 116 176
e 74 179
e 160 182
e 19 243
e 60 244
e 239 246
e 13 169
e 118 185
e 137 235
e 178 236
e 197 249
e 71 110
e 90 123
e 35 187
e 136 239
e 34 228
e 153 179
e 139 244
e 213 230
e 92 169
e 39 77
e 111 182
e 56 246
e 23 69
e 83 120
e 28 184
e 69 185
e 14 249
e 129 236
e 148 249
e 41 123
e 113 228
e 60 136
e 132 241
e 25 115
e 90 244
e 164 193
e 57 67
e 76 80
e 62 182
e 208 236
e 122 196
e 227 249
e 34 120
e 20 185
e 39 198
e 185 252
e 37 125
e 23 190
e 97 139
e 83 241
e 157 190
e 102 254
e 143 255
e 138 177
e 14 141
e 96 180
e 41 244
e 55 142
e 25 236
e 99 185
e 44 249
e 118 198
e 159 236
e 13 182
e 178 249
e 71 123
e 30 85
e 90 136
e 131 137
e 57 188
e 117 239
e 76 201
e 222 255
e 136 252
e 29 126
e 34 241
e 120 244
e 20 77
e 92 182
e 37 246
e 78 247
e 152 196
e 212 247
e 23 82
e 50 185
e 69 198
e 110 199
e 129 249
e 143 147
e 215 252
e 196 239
e 127 139
e 132 254
e 173 255
e 11 193
e 30 206
e 71 244
e 38 67
e 164 206
e 57 80
e 117 131
e 29 247
e 103 196
e 208 249
e 15 83
e 87 188
e 120 136
e 20 198
e 106 201
e 166 252
e 59 126
e 78 139
e 23 203
e 105 242
e 138 190
e 50 77
e 55 155
e 182 196
e 108 247
e 25 249
e 99 198
e 140 199
e 200 250
e 11 85
e 52 86
e 38 188
e 112 137
e 57 201
e 117 252
e 203 255
e 29 139
e 115 142
e 175 193
e 194 206
e 59 247
e 193 210
e 105 134
e 50 198
e 91 199
e 110 212
e 108 139
e 22 99
e 154 255
e 66 142
e 11 206
e 85 155
e 126 156
e 186 207
e 38 80
e 43 158
e 170 199
e 189 212
e 230 250
e 15 96
e 87 201
e 147 215
e 59 139
e 100 140
e 105 255
e 163 196
e 22 220
e 94 96
e 140 212
e 33 86
e 52 99
e 38 201
e 112 150
e 79 202
e 184 255
e 98 215
e 10 102
e 115 155
e 82 207
e 101 220
e 193 223
e 12 148
e 86 97
e 91 212
e 177 215
e 75 204
e 149 153
e 94 217
e 135 218
e 47 105
e 107 156
e 52 220
e 126 169
e 186 220
e 65 159
e 10 223
e 170 212
e 189 225
e 101 112
e 68 164
e 147 228
e 100 153
e 141 154
e 86 218
e 58 156
e 3 220
e 77 169
e 89 223
e 204 210
e 75 96
e 42 148
e 80 174
e 162 213
e 181 226
e 33 99
e 74 100
e 19 164
e 93 113
e 79 215
e 165 218
e 98 228
e 51 116
e 82 220
e 21 210
e 114 172
e 174 223
e 26 59
e 67 97
e 31 174
e 177 228
e 89 115
e 75 217
e 116 218
e 135 231
e 28 105
e 47 118
e 88 156
e 107 169
e 148 170
e 33 220
e 93 234
e 46 159
e 10 236
e 51 237
e 68 177
e 109 215
e 169 229
e 67 218
e 26 180
e 86 231
e 34 41
e 172 234
e 39 119
e 70 223
e 58 169
e 89 236
e 37 46
e 125 159
e 204 223
e 61 174
e 28 226
e 102 175
e 14 62
e 181 239
e 74 113
e 19 177
e 93 126
e 60 178
e 165 231
e 46 51
e 13 103
e 51 129
e 104 221
e 95 172
e 155 223
e 114 185
e 67 110
e 158 228
e 199 229
e 116 231
e 157 232
e 28 118
e 69 119
e 14 183
e 129 170
e 74 234
e 160 237
e 148 183
e 93 247
e 60 70
e 132 175
e 51 250
e 211 239
e 104 113
e 123 126
e 90 178
e 150 229
e 169 242
e 62 116
e 134 221
e 67 231
e 153 234
e 172 247
e 20 119
e 39 132
e 70 236
e 37 59
e 83 175
e 28 239
e 102 188
e 47 252
e 143 189
e 14 75
e 55 76
e 41 178
e 60 191
e 187 232
e 206 245
e 99 119
e 44 183
e 118 132
e 123 247
e 164 248
e 35 134
e 76 135
e 62 237
e 136 186
e 29 60
e 34 175
e 120 178
e 20 240
e 139 191
e 39 253
e 56 193
e 138 232
e 97 194
e 157 245
e 9 118
e 243 248
e 50 119
e 69 132
e 14 196
e 55 197
e 96 235
e 160 250
e 41 70
e 113 175
e 13 237
e 25 62
e 118 253
e 44 75
e 11 127
e 71 178
e 90 191
e 35 255
e 150 242
e 236 245
e 62 129
e 29 181
e 134 234
e 122 143
e 153 247
e 194 248
e 106 135
e 92 237
e 166 186
e 111 250
e 226 237
e 185 199
e 152 251
e 23 137
e 83 188
e 50 240
e 69 253
e 229 242
e 143 202
e 55 89
e 41 191
e 96 127
e 127 194
e 187 245
e 25 183
e 99 132
e 44 196
e 118 145
e 11 19
e 38 122
e 57 135
e 117 186
e 62 250
e 103 251
e 136 199
e 15 138
e 120 191
e 180 242
e 221 243
e 139 204
e 92 129
e 59 181
e 78 194
e 138 245
e 224 248
e 97 207
e 50 132
e 91 133
e 110 146
e 96 248
e 182 251
e 55 210
e 22 33
e 94 138
e 154 189
e 99 253
e 173 202
e 66 76
e 11 140
e 85 89
e 30 153
e 71 191
e 217 245
e 131 205
e 43 92
e 29 194
e 103 143
e 115 197
e 175 248
e 87 135
e 106 148
e 92 250
e 133 251
e 105 189
e 50 253
e 77 90
e 22 154
e 108 194
e 127 207
e 168 208
e 25 196
e 66 197
e 80 95
e 85 210
e 57 148
e 98 149
e 43 213
e 101 154
e 59 194
e 133 143
e 78 207
e 163 251
e 77 211
e 110 159
e 75 138
e 154 202
e 33 141
e 52 154
e 112 205
e 198 208
e 131 218
e 87 148
e 188 200
e 207 213
e 86 152
e 191 205
e 58 90
e 77 103
e 108 207
e 149 208
e 89 157
e 42 82
e 168 221
e 61 95
e 80 108
e 107 211
e 140 159
e 126 224
e 19 98
e 79 149
e 184 202
e 43 226
e 82 154
e 142 205
e 100 208
e 119 221
e 12 95
e 31 108
e 77 224
e 116 152
e 135 165
e 176 203
e 28 39
e 80 229
e 33 154
e 93 168
e 179 208
e 46 93
e 10 170
e 137 211
e 109 149
e 68 111
e 26 114
e 86 165
e 31 229
e 58 103
e 89 170
e 190 222
e 42 95
e 28 160
e 102 109
e 88 211
e 107 224
e 126 237
e 79 162
e 123 168
e 68 232
e 35 55
e 202 232
e 100 221
e 26 235
e 141 222
e 53 109
e 158 162
e 58 224
e 135 178
e 14 117
e 74 168
e 19 232
e 179 221
e 93 181
e 46 106
e 137 224
e 51 184
e 156 237
e 35 176
e 109 162
e 95 227
e 169 176
e 26 127
e 67 165
e 172 181
e 39 66
e 70 170
e 111 171
e 171 222
e 23 58
e 190 235
e 83 109
e 28 173
e 102 122
e 47 186
e 88 224
e 129 225
e 162 173
e 41 112
e 46 227
e 165 178
e 132 230
e 44 117
e 123 181
e 164 182
e 68 245
e 183 232
e 35 68
e 62 171
e 7 235
e 26 248
e 141 235
e 227 238
e 34 109
e 20 174
e 125 227
e 39 187
e 37 114
e 138 166
e 42 229
e 83 230
e 102 243
e 157 179
e 74 181
e 201 222
e 60 246
e 220 235
e 239 248
e 13 171
e 159 225
e 118 187
e 71 112
e 16 176
e 197 251
e 35 189
e 150 176
e 95 240
e 90 125
e 134 168
e 34 230
e 153 181
e 139 246
e 20 66
e 92 171
e 37 235
e 39 79
e 111 184
e 97 249
e 23 71
e 231 249
e 83 122
e 50 174
e 69 187
e 14 251
e 215 241
e 148 251
e 113 230
e 60 138
e 25 117
e 104 181
e 145 182
e 90 246
e 76 82
e 117 120
e 103 185
e 62 184
e 122 198
e 227 251
e 120 125
e 20 187
e 106 190
e 39 200
e 125 240
e 166 241
e 185 254
e 138 179
e 83 243
e 97 141
e 50 66
e 69 79
e 41 246
e 201 235
e 160 197
e 127 249
e 113 122
e 13 184
e 44 251
e 159 238
e 118 200
e 71 125
e 57 190
e 76 203
e 117 241
e 136 254
e 134 181
e 175 182
e 120 246
e 92 184
e 133 185
e 78 249
e 37 248
e 152 198
e 50 187
e 69 200
e 215 254
e 22 88
e 127 141
e 154 244
e 66 131
e 71 246
e 30 208
e 186 196
e 38 69
e 57 82
e 43 147
e 29 249
e 189 201
e 208 251
e 122 211
e 15 85
e 166 254
e 119 142
e 105 244
e 163 185
e 22 209
e 108 249
e 182 198
e 55 157
e 242 249
e 25 251
e 99 200
e 66 252
e 140 201
e 200 252
e 11 87
e 52 88
e 38 190
e 112 139
e 57 203
e 98 204
e 117 254
e 184 244
e 15 206
e 73 147
e 59 249
e 133 198
e 152 211
e 105 136
e 31 150
e 196 254
e 75 193
e 108 141
e 22 101
e 85 157
e 126 158
e 38 82
e 79 83
e 43 160
e 170 201
e 230 252
e 82 88
e 87 203
e 147 217
e 188 255
e 100 142
e 119 155
e 163 198
e 22 222
e 182 211
e 77 158
e 75 85
e 61 150
e 94 98
e 80 163
e 181 215
e 38 203
e 93 102
e 79 204
e 98 217
e 10 104
e 101 222
e 155 199
e 174 212
e 12 150
e 31 163
e 158 204
e 177 217
e 70 91
e 75 206
e 149 155
e 135 220
e 47 107
e 107 158
e 52 222
e 126 171
e 79 96
e 10 225
e 82 101
e 68 166
e 147 230
e 100 155
e 67 207
e 26 169
e 86 220
e 12 42
e 58 158
e 89 225
e 77 171
e 223 225
e 42 150
e 61 163
e 80 176
e 47 228
e 162 215
e 33 101
e 74 102
e 19 166
e 93 115
e 79 217
e 137 158
e 82 222
e 156 171
e 51 118
e 35 110
e 155 212
e 114 174
e 174 225
e 26 61
e 12 163
e 86 112
e 158 217
e 177 230
e 218 231
e 70 104
e 89 117
e 116 220
e 28 107
e 47 120
e 33 222
e 74 223
e 88 158
e 93 236
e 5 123
e 51 239
e 211 228
e 109 217
e 150 218
e 68 179
e 169 231
e 62 105
e 67 220
e 153 223
e 26 182
e 42 163
e 83 164
e 28 228
e 102 177
e 47 241
e 162 228
e 74 115
e 19 179
e 60 180
e 13 105
e 51 131
e 104 223
e 35 123
e 95 174
e 136 175
e 7 61
e 48 62
e 34 164
e 180 218
e 39 242
e 218 244
e 37 169
e 111 118
e 157 234
e 28 120
e 14 185
e 74 236
e 160 239
e 93 249
e 113 164
e 13 226
e 25 51
e 51 252
e 30 129
e 35 244
e 150 231
e 169 244
e 48 183
e 122 132
e 134 223
e 153 236
e 172 249
e 125 174
e 92 226
e 23 126
e 83 177
e 28 241
e 69 242
e 14 77
e 96 116
e 41 180
e 60 193
e 206 247
e 13 118
e 25 172
e 44 185
e 118 134
e 104 236
e 178 185
e 159 172
e 164 250
e 76 137
e 117 175
e 136 188
e 81 252
e 29 62
e 122 253
e 34 177
e 120 180
e 20 242
e 180 231
e 139 193
e 199 244
e 92 118
e 37 182
e 78 183
e 23 247
e 97 196
e 138 234
e 111 131
e 157 247
e 14 198
e 96 237
e 55 199
e 160 252
e 13 239
e 132 190
e 173 191
e 118 255
e 11 129
e 71 180
e 90 193
e 217 234
e 29 183
e 103 132
e 134 236
e 175 237
e 15 19
e 106 137
e 92 239
e 166 188
e 111 252
e 185 201
e 226 239
e 152 253
e 23 139
e 69 255
e 143 204
e 96 129
e 41 193
e 55 91
e 127 196
e 187 247
e 228 248
e 25 185
e 99 134
e 11 250
e 44 198
e 57 137
e 76 150
e 117 188
e 43 202
e 103 253
e 29 75
e 15 140
e 120 193
e 20 255
e 59 183
e 78 196
e 138 247
e 224 250
e 50 134
e 91 135
e 110 148
e 96 250
e 182 253
e 55 212
e 94 140
e 154 191
e 99 255
e 173 204
e 11 142
e 52 143
e 71 193
e 38 245
e 112 194
e 85 91
e 217 247
e 131 207
e 43 94
e 29 196
e 115 199
e 175 250
e 87 137
e 106 150
e 133 253
e 59 75
e 50 255
e 191 194
e 108 196
e 22 156
e 127 209
e 209 248
e 168 210
e 66 199
e 85 212
e 126 213
e 38 137
e 79 138
e 98 151
e 43 215
e 10 38
e 82 143
e 15 153
e 142 194
e 101 156
e 59 196
e 205 250
e 119 210
e 31 97
e 91 148
e 163 253
e 77 213
e 75 140
e 94 153
e 135 154
e 80 218
e 154 204
e 33 143
e 52 156
e 112 207
e 198 210
e 10 159
e 109 138
e 147 164
e 188 202
e 12 205
e 86 154
e 31 218
e 191 207
e 210 220
e 58 92
e 89 159
e 149 210
e 168 223
e 61 97
e 80 110
e 66 212
e 107 213
e 126 226
e 19 100
e 98 164
e 10 51
e 82 156
e 68 221
e 101 169
e 183 208
e 202 221
e 100 210
e 119 223
e 12 97
e 31 110
e 58 213
e 77 226
e 42 205
e 75 153
e 61 218
e 176 205
e 80 231
e 33 156
e 74 157
e 19 221
e 179 210
e 93 170
e 198 223
e 46 95
e 10 172
e 137 213
e 51 173
e 156 226
e 67 154
e 26 116
e 31 231
e 70 159
e 89 172
e 149 223
e 190 224
e 42 97
e 28 162
e 88 213
e 107 226
e 148 227
e 19 113
e 60 114
e 13 39
e 104 157
e 68 234
e 183 221
e 35 57
e 95 108
e 81 173
e 26 237
e 141 224
e 158 164
e 37 103
e 42 218
e 61 231
e 102 232
e 74 170
e 160 173
e 179 223
e 220 224
e 60 235
e 19 234
e 13 160
e 46 108
e 93 183
e 51 186
e 137 226
e 150 165
e 95 229
e 26 129
e 153 170
e 20 55
e 39 68
e 37 224
e 111 173
e 70 172
e 171 224
e 23 60
e 190 237
e 83 111
e 28 175
e 14 240
e 129 227
e 88 226
e 148 240
e 41 114
e 60 127
e 46 229
e 132 232
e 151 245
e 13 52
e 104 170
e 90 235
e 164 184
e 123 183
e 35 70
e 62 173
e 7 237
e 208 227
e 26 250
e 227 240
e 122 187
e 141 237
e 20 176
e 34 111
e 39 189
e 125 229
e 185 243
e 23 181
e 138 168
e 83 232
e 102 245
e 14 132
e 55 133
e 41 235
e 201 224
e 60 248
e 220 237
e 160 186
e 96 171
e 13 173
e 99 176
e 44 240
e 118 189
e 178 240
e 30 76
e 16 178
e 90 127
e 35 191
e 117 230
e 136 243
e 29 117
e 134 170
e 34 232
e 120 235
e 153 183
e 139 248
e 20 68
e 92 173
e 37 237
e 111 186
e 152 187
e 97 251
e 171 237
e 105 112
e 231 251
e 69 189
e 14 253
e 129 240
e 55 254
e 41 127
e 113 232
e 132 245
e 173 246
e 25 119
e 44 132
e 85 133
e 71 235
e 90 248
e 164 197
e 38 58
e 57 71
e 117 122
e 62 186
e 103 187
e 122 200
e 15 74
e 227 253
e 20 189
e 166 243
e 59 117
e 23 194
e 83 245
e 50 68
e 41 248
e 127 251
e 182 187
e 99 189
e 118 202
e 200 241
e 11 76
e 85 254
e 38 179
e 159 240
e 30 89
e 131 141
e 76 205
e 203 246
e 117 243
e 115 133
e 175 184
e 92 186
e 133 187
e 78 251
e 152 200
e 212 251
e 105 125
e 50 189
e 91 190
e 110 203
e 196 243
e 22 90
e 127 143
e 113 245
e 154 246
e 25 132
e 66 133
e 11 197
e 71 248
e 112 249
e 30 210
e 38 71
e 43 149
e 29 251
e 115 254
e 230 241
e 189 203
e 103 200
e 15 87
e 78 143
e 105 246
e 77 147
e 22 211
e 182 200
e 80 152
e 25 253
e 66 254
e 140 203
e 33 77
e 52 90
e 112 141
e 57 205
e 131 154
e 98 206
e 184 246
e 10 93
e 15 208
e 142 249
e 101 211
e 175 197
e 133 200
e 174 201
e 86 88
e 31 152
e 177 206
e 22 103
e 94 208
e 11 210
e 52 211
e 126 160
e 107 147
e 186 211
e 79 85
e 43 162
e 170 203
e 87 205
e 119 157
e 12 31
e 31 44
e 58 147
e 77 160
e 22 224
e 75 87
e 61 152
e 80 165
e 181 217
e 33 90
e 19 155
e 52 103
e 79 206
e 10 106
e 137 147
e 82 211
e 51 107
e 101 224
e 156 160
e 155 201
e 193 227
e 12 152
e 86 101
e 31 165
e 158 206
e 89 106
e 75 208
e 135 222
e 88 147
e 47 109
e 33 211
e 52 224
e 126 173
e 93 225
e 19 47
e 107 160
e 79 98
e 46 150
e 211 217
e 68 168
e 109 206
e 169 220
e 26 171
e 141 158
e 86 222
e 100 157
e 58 160
e 89 227
e 223 227
e 42 152
e 61 165
e 47 230
e 162 217
e 181 230
e 74 104
e 19 168
e 165 222
e 51 120
e 137 160
e 82 224
e 123 225
e 35 112
e 95 163
e 114 176
e 67 101
e 12 165
e 70 106
e 116 222
e 135 235
e 28 109
e 88 160
e 14 174
e 47 122
e 74 225
e 148 174
e 5 125
e 132 166
e 46 163
e 51 241
e 68 181
e 150 220
e 62 107
e 26 184
e 153 225
e 141 171
e 67 222
e 20 110
e 125 163
e 70 227
e 39 123
e 89 240
e 37 50
e 23 115
e 42 165
e 83 166
e 28 230
e 102 179
e 47 243
e 162 230
e 14 66
e 60 182
e 165 235
e 206 236
e 13 107
e 118 123
e 104 225
e 123 238
e 35 125
e 21 227
e 76 126
e 136 177
e 62 228
e 95 176
e 34 166
e 180 220
e 139 182
e 39 244
e 218 246
e 92 107
e 37 171
e 111 120
e 97 185
e 138 223
e 157 236
e 9 109
e 50 110
e 69 123
e 14 187
e 129 174
e 148 187
e 41 61
e 113 166
e 132 179
e 51 254
e 44 66
e 104 117
e 30 131
e 90 182
e 35 246
e 62 120
e 48 185
e 122 134
e 20 123
e 106 126
e 125 176
e 166 177
e 92 228
e 39 136
e 111 241
e 83 179
e 28 243
e 69 244
e 143 193
e 55 80
e 96 118
e 127 185
e 41 182
e 187 236
e 206 249
e 13 120
e 25 174
e 118 136
e 30 252
e 164 252
e 57 126
e 117 177
e 76 139
e 62 241
e 122 255
e 15 129
e 120 182
e 20 244
e 221 234
e 37 184
e 78 185
e 138 236
e 224 239
e 157 249
e 243 252
e 69 136
e 110 137
e 55 201
e 96 239
e 160 254
e 113 179
e 13 241
e 154 180
e 173 193
e 25 66
e 11 131
e 71 182
e 90 195
e 131 196
e 57 247
e 43 83
e 29 185
e 194 252
e 87 126
e 106 139
e 92 241
e 152 255
e 105 180
e 50 244
e 55 93
e 96 131
e 127 198
e 108 185
e 187 249
e 228 250
e 25 187
e 99 136
e 66 188
e 85 201
e 11 252
e 11 23
e 38 126
e 57 139
e 117 190
e 43 204
e 103 255
e 15 142
e 87 247
e 221 247
e 78 198
e 119 199
e 205 239
e 224 252
e 91 137
e 110 150
e 96 252
e 75 129
e 22 37
e 94 142
e 154 193
e 173 206
e 112 196
e 43 96
e 115 201
e 175 252
e 87 139
e 147 153
e 133 255
e 105 193
e 191 196
e 31 207
e 77 94
e 108 198
e 149 199
e 22 158
e 61 86
e 121 137
e 66 201
e 140 150
e 80 99
e 126 215
e 38 139
e 79 140
e 184 193
e 98 153
e 43 217
e 101 158
e 142 196
e 59 198
e 100 199
e 119 212
e 246 253
e 12 86
e 91 150
e 58 202
e 77 215
e 75 142
e 61 207
e 176 194
e 80 220
e 94 155
e 33 145
e 52 158
e 179 199
e 5 46
e 156 215
e 68 102
e 109 140
e 188 204
e 85 235
e 114 218
e 67 143
e 26 105
e 86 156
e 191 209
e 70 148
e 58 94
e 77 107
e 61 99
e 47 164
e 107 215
e 126 228
e 19 102
e 82 158
e 123 159
e 68 223
e 183 210
e 35 46
e 95 97
e 26 226
e 100 212
e 141 213
e 12 99
e 58 215
e 144 218
e 77 228
e 42 207
e 116 156
e 61 220
e 135 169
e 176 207
e 28 43
e 47 56
e 33 158
e 74 159
e 19 223
e 179 212
e 93 172
e 198 225
e 46 97
e 10 174
e 51 175
e 137 215
e 156 228
e 68 115
e 150 154
e 109 153
e 95 218
e 114 231
e 26 118
e 12 220
e 67 156
e 39 57
e 89 174
e 171 213
e 190 226
e 83 100
e 28 164
e 102 113
e 47 177
e 88 215
e 107 228
e 148 229
e 19 115
e 46 218
e 165 169
e 51 67
e 104 159
e 123 172
e 68 236
e 183 223
e 62 162
e 26 239
e 141 226
e 34 100
e 39 178
e 37 105
e 42 220
e 83 221
e 157 170
e 116 169
e 102 234
e 74 172
e 160 175
e 201 213
e 19 236
e 220 226
e 13 162
e 51 188
e 137 228
e 178 229
e 197 242
e 90 116
e 35 180
e 95 231
e 136 232
e 169 180
e 134 159
e 34 221
e 53 234
e 213 223
e 139 237
e 92 162
e 39 70
e 37 226
e 23 62
e 231 240
e 83 113
e 28 177
e 69 178
e 14 242
e 129 229
e 148 242
e 41 116
e 113 221
e 46 231
e 132 234
e 60 129
e 25 108
e 104 172
e 90 237
e 164 186
e 122 189
e 34 113
e 20 178
e 39 191
e 166 232
e 125 231
e 185 245
e 37 118
e 78 119
e 23 183
e 97 132
e 83 234
e 157 183
e 50 57
e 143 248
e 14 134
e 55 135
e 41 237
e 96 173
e 160 188
e 220 239
e 60 250
e 201 226
e 13 175
e 25 229
e 44 242
e 118 191
e 159 229
e 71 116
e 30 78
e 35 193
e 117 232
e 76 194
e 136 245
e 222 248
e 29 119
e 134 172
e 34 234
e 120 237
e 139 250
e 20 70
e 92 175
e 37 239
e 111 188
e 152 189
e 78 240
e 97 253
e 23 75
e 231 253
e 69 191
e 14 255
e 129 242
e 196 232
e 215 245
e 22 79
e 41 129
e 127 132
e 113 234
e 132 247
e 173 248
e 44 134
e 85 135
e 30 199
e 11 186
e 71 237
e 38 60
e 131 251
e 164 199
e 90 250
e 76 86
e 29 240
e 103 189
e 208 242
e 122 202
e 15 76
e 120 129
e 20 191
e 106 194
e 166 245
e 59 119
e 78 132
e 23 196
e 97 145
e 138 183
e 50 70
e 55 148
e 182 189
e 96 186
e 41 250
e 108 240
e 25 242
e 99 191
e 44 255
e 159 242
e 11 78
e 52 79
e 71 129
e 38 181
e 57 194
e 131 143
e 76 207
e 203 248
e 29 132
e 115 135
e 15 197
e 59 240
e 78 253
e 152 202
e 193 203
e 212 253
e 105 127
e 50 191
e 110 205
e 22 92
e 108 132
e 94 197
e 154 248
e 66 135
e 11 199
e 85 148
e 126 149
e 112 251
e 186 200
e 30 212
e 71 250
e 29 253
e 103 202
e 189 205
e 15 89
e 87 194
e 106 207
e 188 246
e 147 208
e 59 132
e 100 133
e 191 251
e 31 33
e 163 189
e 22 213
e 242 253
e 80 154
e 33 79
e 52 92
e 38 194
e 112 143
e 98 208
e 10 95
e 115 148
e 15 210
e 142 251
e 101 213
e 59 253
e 100 254
e 133 202
e 174 203
e 12 141
e 86 90
e 31 154
e 91 205
e 177 208
e 75 197
e 94 210
e 47 98
e 107 149
e 52 213
e 126 162
e 186 213
e 170 205
e 189 218
e 82 92
e 101 105
e 68 157
e 147 221
e 86 211
e 119 159
e 58 149
e 77 162
e 163 202
e 22 226
e 162 206
e 33 92
e 74 93
e 19 157
e 93 106
e 79 208
e 98 221
e 10 108
e 137 149
e 82 213
e 51 109
e 156 162
e 101 226
e 95 152
e 155 203
e 114 165
e 67 90
e 26 52
e 12 154
e 158 208
e 177 221
e 70 95
e 75 210
e 149 159
e 135 224
e 28 98
e 88 149
e 33 213
e 107 162
e 148 163
e 93 227
e 46 152
e 10 229
e 51 230
e 109 208
e 169 222
e 81 109
e 26 173
e 86 224
e 172 227
e 125 152
e 58 162
e 89 229
e 42 154
e 102 168
e 47 232
e 14 55
e 181 232
e 19 170
e 93 119
e 165 224
e 13 96
e 137 162
e 82 226
e 123 227
e 95 165
e 34 155
e 158 221
e 199 222
e 70 108
e 37 160
e 116 224
e 135 237
e 28 111
e 14 176
e 129 163
e 74 227
e 88 162
e 93 240
e 46 165
e 132 168
e 211 232
e 90 171
e 35 235
e 169 235
e 62 109
e 26 186
e 67 224
e 153 227
e 34 47
e 172 240
e 20 112
e 39 125
e 70 229
e 111 230
e 23 117
e 83 168
e 28 232
e 102 181
e 143 182
e 47 245
e 14 68
e 96 107
e 55 69
e 60 184
e 187 225
e 13 109
e 99 112
e 44 176
e 159 163
e 104 227
e 118 125
e 123 240
e 164 241
e 35 127
e 117 166
e 136 179
e 34 168
e 120 171
e 139 184
e 180 222
e 199 235
e 37 173
e 97 187
e 138 225
e 50 112
e 14 189
e 129 176
e 74 240
e 160 243
e 55 190
e 113 168
e 13 230
e 25 55
e 44 68
e 71 171
e 30 133
e 90 184
e 150 235
e 76 249
e 29 174
e 103 123
e 134 227
e 62 122
e 153 240
e 194 241
e 20 125
e 92 230
e 166 179
e 111 243
e 83 181
e 69 246
e 229 235
e 55 82
e 127 187
e 206 251
e 25 176
e 99 125
e 118 138
e 30 254
e 85 190
e 159 176
e 38 115
e 164 254
e 117 179
e 62 243
e 103 244
e 76 141
e 29 66
e 15 131
e 20 246
e 180 235
e 139 197
e 106 249
e 92 122
e 59 174
e 78 187
e 23 251
e 97 200
e 224 241
e 243 254
e 50 125
e 91 126
e 110 139
e 55 203
e 22 26
e 94 131
e 113 181
e 13 243
e 154 182
e 99 246
e 11 133
e 71 184
e 112 185
e 131 198
e 236 251
e 43 85
e 29 187
e 115 190
e 103 136
e 15 252
e 175 241
e 194 254
e 106 141
e 92 243
e 133 244
e 105 182
e 50 246
e 77 83
e 22 147
e 108 187
e 127 200
e 168 201
e 25 189
e 66 190
e 11 254
e 85 203
e 186 255
e 57 141
e 98 142
e 43 206
e 10 29
e 101 147
e 87 249
e 142 185
e 133 136
e 78 200
e 205 241
e 119 201
e 224 254
e 31 88
e 91 139
e 110 152
e 77 204
e 3 26
e 96 254
e 75 131
e 163 244
e 154 195
e 38 249
e 112 198
e 198 201
e 131 211
e 10 150
e 115 203
e 87 141
e 188 193
e 58 83
e 22 160
e 75 252
e 108 200
e 149 201
e 61 88
e 66 203
e 140 152
e 79 142
e 98 155
e 82 147
e 101 160
e 202 212
e 100 201
e 205 254
e 31 101
e 58 204
e 77 217
e 135 158
e 176 196
e 80 222
e 33 147
e 52 160
e 19 212
e 179 201
e 46 86
e 10 163
e 137 204
e 156 217
e 68 104
e 109 142
e 188 206
e 114 220
e 26 107
e 86 158
e 31 222
e 191 211
e 70 150
e 58 96
e 89 163
e 190 215
e 42 88
e 61 101
e 47 166
e 88 204
e 107 217
e 126 230
e 19 104
e 46 207
e 79 155
e 82 160
e 68 225
e 183 212
e 202 225
e 95 99
e 26 228
e 141 215
e 12 101
e 58 217
e 116 158
e 61 222
e 135 171
e 102 223
e 14 110
e 19 225
e 93 174
e 46 99
e 137 217
e 156 230
e 197 231
e 109 155
e 35 169
e 95 220
e 150 156
e 67 158
e 12 222
e 53 223
e 26 120
e 20 46
e 39 59
e 70 163
e 190 228
e 42 101
e 28 166
e 88 217
e 129 218
e 47 179
e 148 231
e 60 118
e 46 220
e 165 171
e 132 223
e 13 43
e 44 110
e 123 174
e 183 225
e 35 61
e 95 112
e 62 164
e 26 241
e 141 228
e 34 102
e 39 180
e 185 234
e 37 107
e 42 222
e 83 223
e 102 236
e 14 123
e 74 174
e 160 177
e 60 239
e 201 215
e 41 226
e 239 241
e 13 164
e 44 231
e 118 180
e 51 190
e 178 231
e 159 218
e 71 105
e 30 67
e 90 118
e 35 182
e 136 234
e 34 223
e 153 174
e 213 225
e 139 239
e 20 59
e 92 164
e 37 228
e 111 177
e 56 241
e 97 242
e 171 228
e 28 179
e 69 180
e 14 244
e 129 231
e 215 234
e 148 244
e 41 118
e 113 223
e 60 131
e 132 236
e 25 110
e 44 123
e 30 188
e 71 226
e 90 239
e 104 174
e 57 62
e 62 177
e 122 191
e 208 231
e 227 244
e 20 180
e 39 193
e 166 234
e 185 247
e 37 120
e 23 185
e 97 134
e 83 236
e 138 172
e 143 250
e 96 175
e 41 239
e 127 242
e 55 137
e 160 190
e 25 231
e 13 177
e 99 180
e 159 231
e 118 193
e 178 244
e 30 80
e 90 131
e 57 183
e 76 196
e 117 234
e 136 247
e 34 236
e 139 252
e 92 177
e 133 178
e 78 242
e 152 191
e 37 241
e 212 242
e 97 255
e 105 116
e 50 180
e 69 193
e 196 234
e 110 194
e 127 134
e 113 236
e 154 237
e 173 250
e 25 123
e 11 188
e 85 137
e 71 239
e 30 201
e 90 252
e 131 253
e 57 75
e 29 242
e 122 204
e 120 131
e 20 193
e 87 183
e 106 196
e 207 248
e 78 134
e 119 135
e 105 237
e 210 253
e 22 202
e 108 242
e 96 188
e 25 244
e 66 245
e 140 194
e 99 193
e 200 245
e 11 80
e 112 132
e 57 196
e 184 237
e 29 134
e 115 137
e 15 199
e 175 188
e 120 252
e 59 242
e 133 191
e 78 255
e 193 205
e 105 129
e 91 194
e 196 247
e 108 134
e 94 199
e 154 250
e 66 137
e 11 201
e 52 202
e 112 253
e 186 202
e 38 75
e 43 153
e 29 255
e 170 194
e 230 245
e 189 207
e 87 196
e 188 248
e 59 134
e 100 135
e 119 148
e 105 250
e 12 22
e 191 253
e 31 35
e 58 138
e 163 191
e 22 215
e 108 255
e 182 204
e 61 143
e 80 156
e 140 207
e 52 94
e 38 196
e 79 197
e 184 250
e 98 210
e 10 97
e 82 202
e 115 150
e 101 215
e 142 253
e 54 140
e 59 255
e 114 154
e 174 205
e 26 41
e 67 79
e 12 143
e 31 156
e 86 92
e 91 207
e 177 210
e 75 199
e 94 212
e 135 213
e 176 251
e 88 138
e 33 202
e 47 100
e 52 215
e 126 164
e 79 89
e 10 218
e 170 207
e 82 94
e 109 197
e 147 223
e 100 148
e 26 162
e 86 213
e 12 35
e 89 218
e 42 143
e 80 169
e 47 221
e 162 208
e 181 221
e 33 94
e 19 159
e 93 108
e 79 210
e 165 213
e 98 223
e 51 111
e 82 215
e 101 228
e 95 154
e 155 205
e 174 218
e 67 92
e 158 210
e 177 223
e 218 224
e 70 97
e 89 110
e 75 212
e 135 226
e 28 100
e 47 113
e 33 215
e 107 164
e 93 229
e 46 154
e 10 231
e 211 221
e 109 210
e 68 172
e 62 98
e 67 213
e 141 162
e 26 175
e 86 226
e 125 154
e 70 218
e 39 114
e 89 231
e 37 41
e 204 218
e 42 156
e 83 157
e 28 221
e 102 170
e 47 234
e 162 221
e 14 57
e 74 108
e 19 172
e 165 226
e 13 98
e 123 229
e 35 116
e 81 232
e 34 157
e 139 173
e 180 211
e 199 224
e 39 235
e 218 237
e 37 162
e 92 98
e 116 226
e 157 227
e 9 100
e 28 113
e 69 114
e 14 178
e 74 229
e 148 178
e 93 242
e 41 52
e 113 157
e 132 170
e 51 245
e 90 173
e 35 237
e 150 224
e 169 237
e 172 242
e 20 114
e 39 127
e 166 168
e 111 232
e 23 119
e 83 170
e 28 234
e 69 235
e 143 184
e 55 71
e 96 109
e 41 173
e 60 186
e 187 227
e 206 240
e 13 111
e 25 165
e 44 178
e 118 127
e 104 229
e 159 165
e 123 242
e 164 243
e 117 168
e 136 181
e 122 246
e 29 55
e 120 173
e 20 235
e 39 248
e 199 237
e 92 111
e 37 175
e 78 176
e 23 240
e 138 227
e 97 189
e 157 240
e 69 127
e 14 191
e 129 178
e 96 230
e 160 245
e 13 232
e 132 183
e 99 235
e 118 248
e 44 70
e 11 122
e 30 135
e 71 173
e 90 186
e 217 227
e 76 251
e 236 240
e 35 250
e 43 74
e 29 176
e 103 125
e 134 229
e 122 138
e 153 242
e 87 117
e 20 127
e 92 232
e 166 181
e 111 245
e 152 246
e 185 194
e 226 232
e 23 132
e 105 171
e 50 235
e 69 248
e 143 197
e 108 176
e 41 186
e 96 122
e 127 189
e 187 240
e 206 253
e 25 178
e 99 127
e 11 243
e 44 191
e 38 117
e 62 245
e 29 68
e 15 133
e 120 186
e 20 248
e 240 251
e 59 176
e 78 189
e 205 230
e 138 240
e 224 243
e 97 202
e 23 253
e 50 127
e 110 141
e 55 205
e 96 243
e 22 28
e 154 184
e 99 248
e 173 197
e 11 135
e 30 148
e 71 186
e 57 251
e 217 240
e 131 200
e 112 187
e 29 189
e 103 138
e 15 254
e 175 243
e 15 25
e 106 143
e 92 245
e 133 246
e 59 68
e 105 184
e 50 248
e 91 249
e 22 149
e 127 202
e 94 254
e 168 203
e 228 254
e 80 90
e 85 205
e 126 206
e 79 131
e 43 208
e 101 149
e 87 251
e 221 251
e 59 189
e 133 138
e 100 190
e 119 203
e 205 243
e 31 90
e 77 206
e 163 246
e 75 133
e 80 211
e 154 197
e 33 136
e 38 251
e 112 200
e 198 203
e 115 205
e 156 206
e 68 93
e 147 157
e 207 208
e 12 198
e 86 147
e 31 211
e 191 200
e 210 213
e 58 85
e 89 152
e 22 162
e 75 254
e 149 203
e 42 77
e 77 98
e 61 90
e 80 103
e 107 206
e 19 93
e 98 157
e 184 197
e 10 44
e 82 149
e 101 162
e 183 201
e 142 200
e 100 203
e 12 90
e 31 103
e 58 206
e 75 146
e 42 198
e 116 147
e 135 160
e 80 224
e 28 34
e 176 198
e 33 149
e 52 162
e 93 163
e 179 203
e 46 88
e 10 165
e 51 166
e 137 206
e 49 93
e 68 106
e 114 222
e 67 147
e 26 109
e 86 160
e 31 224
e 12 211
e 70 152
e 58 98
e 89 165
e 190 217
e 42 90
e 28 155
e 102 104
e 47 168
e 88 206
e 61 103
e 60 107
e 65 222
e 104 150
e 202 227
e 95 101
e 26 230
e 37 96
e 42 211
e 116 160
e 61 224
e 102 225
e 176 211
e 28 47
e 14 112
e 88 98
e 19 227
e 93 176
e 46 101
e 178 220
e 35 171
e 95 222
e 114 235
e 67 160
e 26 122
e 34 212
e 153 163
e 172 176
e 39 61
e 37 217
e 70 165
e 56 230
e 171 217
e 111 166
e 190 230
e 83 104
e 28 168
e 102 117
e 47 181
e 129 220
e 41 107
e 60 120
e 46 222
e 132 225
e 44 112
e 104 163
e 90 228
e 123 176
e 62 166
e 208 220
e 141 230
e 34 104
e 20 169
e 39 182
e 125 222
e 144 235
e 185 236
e 23 174
e 97 123
e 83 225
e 157 174
e 143 239
e 14 125
e 41 228
e 160 179
e 60 241
e 220 230
e 13 166
e 159 220
e 197 246
e 71 107
e 30 69
e 90 120
e 76 185
e 117 223
e 136 236
e 35 184
e 150 171
e 29 110
e 134 163
e 153 176
e 120 228
e 139 241
e 20 61
e 92 166
e 111 179
e 171 230
e 212 231
e 23 66
e 231 244
e 50 169
e 83 117
e 69 182
e 14 246
e 97 244
e 215 236
e 173 239
e 25 112
e 85 126
e 71 228
e 30 190
e 90 241
e 164 190
e 76 77
e 62 179
e 103 180
e 122 193
e 227 246
e 15 67
e 20 182
e 106 185
e 166 236
e 59 110
e 23 187
e 50 61
e 143 252
e 55 139
e 41 241
e 201 230
e 127 244
e 13 179
e 99 182
e 44 246
e 200 234
e 11 69
e 30 82
e 16 184
e 76 198
e 117 236
e 136 249
e 222 252
e 29 123
e 115 126
e 15 188
e 175 177
e 120 241
e 139 254
e 59 231
e 133 180
e 92 179
e 152 193
e 78 244
e 45 67
e 105 118
e 50 182
e 110 196
e 215 249
e 108 123
e 22 83
e 127 136
e 113 238
e 154 239
e 173 252
e 25 125
e 66 126
e 11 190
e 85 139
e 30 203
e 71 241
e 57 77
e 43 142
e 115 247
e 230 234
e 122 206
e 103 193
e 15 80
e 106 198
e 166 249
e 78 136
e 119 137
e 105 239
e 163 180
e 77 140
e 182 193
e 108 244
e 22 204
e 25 246
e 66 247
e 33 70
e 52 83
e 38 185
e 112 134
e 57 198
e 184 239
e 98 199
e 203 252
e 10 86
e 115 139
e 15 201
e 101 204
e 59 244
e 133 193
e 193 207
e 105 131
e 91 196
e 110 209
e 196 249
e 237 250
e 108 136
e 75 188
e 22 96
e 154 252
e 66 139
e 107 140
e 52 204
e 126 153
e 112 255
e 186 204
e 43 155
e 170 196
e 10 207
e 87 198
e 147 212
e 188 250
e 100 137
e 119 150
e 105 252
e 31 37
e 58 140
e 77 153
e 163 193
e 22 217
e 80 158
e 181 210
e 33 83
e 19 148
e 93 97
e 38 198
e 79 199
e 184 252
e 225 253
e 98 212
e 10 99
e 82 204
e 142 255
e 101 217
e 155 194
e 174 207
e 193 220
e 31 158
e 158 199
e 177 212
e 89 99
e 135 215
e 176 253
e 88 140
e 33 204
e 107 153
e 52 217
e 93 218
e 79 91
e 82 96
e 109 199
e 147 225
e 67 202
e 26 164
e 86 215
e 100 150
e 12 37
e 58 153
e 3 217
e 89 220
e 70 207
e 61 158
e 102 159
e 47 223
e 162 210
e 181 223
e 74 97
e 93 110
e 79 212
e 165 215
e 51 113
e 82 217
e 156 166
e 35 105
e 67 94
e 158 212
e 177 225
e 70 99
e 116 215
e 135 228
e 28 102
e 88 153
e 33 217
e 74 218
e 47 115
e 93 231
e 46 156
e 51 234
e 211 223
e 109 212
e 150 213
e 68 174
e 169 226
e 35 226
e 62 100
e 67 215
e 153 218
e 86 228
e 172 231
e 26 177
e 141 164
e 39 116
e 125 156
e 70 220
e 37 43
e 42 158
e 83 159
e 102 172
e 162 223
e 41 162
e 60 175
e 206 229
e 13 100
e 51 126
e 104 218
e 123 231
e 35 118
e 95 169
e 62 221
e 34 159
e 180 213
e 39 237
e 199 226
e 37 164
e 111 113
e 97 178
e 157 229
e 50 103
e 14 180
e 74 231
e 160 234
e 113 159
e 60 67
e 13 221
e 118 237
e 25 46
e 44 59
e 51 247
e 71 162
e 90 175
e 35 239
e 150 226
e 169 239
e 62 113
e 134 218
e 153 231
e 172 244
e 20 116
e 39 129
e 125 169
e 111 234
e 92 221
e 166 170
e 83 172
e 28 236
e 69 237
e 96 111
e 41 175
e 127 178
e 187 229
e 206 242
e 99 116
e 44 180
e 118 129
e 30 245
e 104 231
e 57 119
e 76 132
e 62 234
e 117 170
e 34 172
e 120 175
e 20 237
e 180 226
e 39 250
e 139 188
e 37 177
e 78 178
e 23 242
e 97 191
e 138 229
e 157 242
e 50 116
e 69 129
e 96 232
e 55 194
e 160 247
e 113 172
e 13 234
e 154 173
e 173 186
e 25 59
e 99 237
e 118 250
e 71 175
e 57 240
e 90 188
e 76 253
e 236 242
e 131 189
e 43 76
e 29 178
e 217 229
e 134 231
e 175 232
e 122 140
e 194 245
e 92 234
e 111 247
e 152 248
e 105 173
e 50 237
e 69 250
e 110 251
e 108 178
e 55 86
e 22 138
e 228 243
e 25 180
e 66 181
e 11 245
e 99 129
e 57 132
e 117 183
e 103 248
e 10 20
e 29 70
e 15 135
e 120 188
e 240 253
e 59 178
e 78 191
e 23 255
e 138 242
e 205 232
e 31 79
e 17 181
e 110 143
e 96 245
e 55 207
e 182 248
e 94 135
e 99 250
e 140 251
e 173 199
e 52 138
e 112 189
e 57 253
e 217 242
e 43 89
e 29 191
e 115 194
e 175 245
e 87 132
e 133 248
e 59 70
e 105 186
e 50 250
e 91 251
e 58 74
e 77 87
e 108 191
e 168 205
e 61 79
e 80 92
e 85 207
e 126 208
e 38 132
e 79 133
e 43 210
e 10 33
e 15 148
e 142 189
e 87 253
e 18 153
e 59 191
e 119 205
e 12 79
e 31 92
e 91 143
e 163 248
e 77 208
e 3 30
e 75 135
e 61 200
e 176 187
e 80 213
e 94 148
e 33 138
e 112 202
e 79 254
e 198 205
e 115 207
e 156 208
e 109 133
e 147 159
e 26 98
e 12 200
e 31 213
e 191 202
e 58 87
e 89 154
e 77 100
e 149 205
e 42 79
e 168 218
e 61 92
e 80 105
e 47 157
e 107 208
e 126 221
e 19 95
e 82 151
e 101 164
e 109 254
e 142 202
e 100 205
e 141 206
e 12 92
e 58 208
e 42 200
e 116 149
e 61 213
e 135 162
e 176 200
e 195 213
e 80 226
e 74 152
e 179 205
e 93 165
e 198 218
e 46 90
e 137 208
e 51 168
e 95 211
e 26 111
e 12 213
e 86 162
e 70 154
e 171 206
e 42 92
e 83 93
e 28 157
e 102 106
e 88 208
e 47 170
e 107 221
e 148 222
e 19 108
e 60 109
e 46 211
e 13 34
e 51 60
e 104 152
e 123 165
e 35 52
e 81 168
e 26 232
e 34 93
e 125 211
e 39 171
e 37 98
e 42 213
e 157 163
e 102 227
e 74 165
e 19 229
e 60 230
e 93 178
e 13 155
e 51 181
e 178 222
e 197 235
e 49 108
e 16 160
e 90 109
e 35 173
e 95 224
e 136 225
e 134 152
e 153 165
e 172 178
e 139 230
e 20 50
e 111 168
e 190 232
e 83 106
e 28 170
e 14 235
e 129 222
e 148 235
e 41 109
e 60 122
e 46 224
e 132 227
e 13 47
e 44 114
e 90 230
e 164 179
e 123 178
e 62 168
e 208 222
e 26 245
e 122 182
e 20 171
e 39 184
e 166 225
e 125 224
e 37 111
e 78 112
e 97 125
e 138 163
e 83 227
e 102 240
e 143 241
e 14 127
e 96 166
e 41 230
e 60 243
e 220 232
e 13 168
e 99 171
e 44 235
e 159 222
e 118 184
e 178 235
e 30 71
e 71 109
e 35 186
e 76 187
e 117 225
e 222 241
e 29 112
e 134 165
e 34 227
e 120 230
e 139 243
e 92 168
e 37 232
e 111 181
e 152 182
e 23 68
e 50 171
e 69 184
e 14 248
e 55 249
e 196 225
e 129 235
e 108 112
e 41 122
e 132 240
e 173 241
e 25 114
e 44 127
e 11 179
e 90 243
e 57 66
e 43 131
e 62 181
e 208 235
e 15 69
e 20 184
e 59 112
e 185 251
e 78 125
e 23 189
e 97 138
e 138 176
e 105 228
e 143 254
e 96 179
e 41 243
e 127 246
e 55 141
e 25 235
e 44 248
e 159 235
e 85 249
e 11 71
e 118 197
e 38 174
e 112 123
e 71 122
e 131 136
e 76 200
e 203 241
e 29 125
e 15 190
e 175 179
e 120 243
e 133 182
e 78 246
e 212 246
e 50 184
e 91 185
e 110 198
e 215 251
e 22 85
e 127 138
e 94 190
e 154 241
e 173 254
e 71 243
e 112 244
e 186 193
e 38 66
e 30 205
e 126 142
e 29 246
e 115 249
e 189 198
e 230 236
e 15 82
e 87 187
e 106 200
e 147 201
e 188 239
e 207 252
e 59 125
e 100 126
e 119 139
e 105 241
e 191 244
e 108 246
e 66 249
e 140 198
e 52 85
e 38 187
e 112 136
e 57 200
e 98 201
e 244 255
e 10 88
e 115 141
e 15 203
e 142 244
e 101 206
e 54 131
e 59 246
e 174 196
e 12 134
e 31 147
e 91 198
e 177 201
e 110 211
e 22 98
e 75 190
e 94 203
e 154 254
e 33 193
e 66 141
e 107 142
e 126 155
e 52 206
e 186 206
e 19 29
e 79 80
e 170 198
e 189 211
e 230 249
e 68 150
e 87 200
e 100 139
e 119 152
e 86 204
e 12 26
e 58 142
e 75 82
e 42 134
e 61 147
e 80 160
e 140 211
e 181 212
e 33 85
e 74 86
e 19 150
e 93 99
e 79 201
e 184 254
e 225 255
e 10 101
e 51 102
e 82 206
e 155 196
e 114 158
e 174 209
e 193 222
e 12 147
e 31 160
e 158 201
e 70 88
e 89 101
e 149 152
e 116 204
e 176 255
e 135 217
e 28 91
e 47 104
e 33 206
e 107 155
e 93 220
e 19 42
e 10 222
e 51 223
e 109 201
e 68 163
e 169 215
e 67 204
e 26 166
e 86 217
e 141 153
e 172 220
e 89 222
e 42 147
e 28 212
e 61 160
e 47 225
e 162 212
e 14 48
e 74 99
e 19 163
e 93 112
e 60 164
e 95 158
e 114 171
e 34 148
e 67 96
e 218 228
e 70 101
e 37 153
e 116 217
e 135 230
e 28 104
e 47 117
e 129 156
e 74 220
e 148 169
e 5 120
e 46 158
e 51 236
e 211 225
e 90 164
e 35 228
e 150 215
e 169 228
e 62 102
e 67 217
e 26 179
e 153 220
e 141 166
e 20 105
e 125 158
e 70 222
e 111 223
e 28 225
e 102 174
e 162 225
e 14 61
e 55 62
e 41 164
e 146 217
e 60 177
e 165 230
e 206 231
e 13 102
e 44 169
e 104 220
e 164 234
e 35 120
e 117 159
e 62 223
e 29 46
e 120 164
e 20 226
e 180 215
e 39 239
e 199 228
e 139 177
e 92 102
e 37 166
e 111 115
e 23 231
e 138 218
e 97 180
e 157 231
e 218 241
e 50 105
e 69 118
e 14 182
e 160 236
e 13 223
e 132 174
e 118 239
e 30 126
e 71 164
e 90 177
e 35 241
e 150 228
e 76 242
e 62 115
e 103 116
e 134 220
e 122 129
e 20 118
e 39 131
e 92 223
e 166 172
e 111 236
e 23 123
e 83 174
e 50 226
e 69 239
e 143 188
e 41 177
e 127 180
e 187 231
e 206 244
e 25 169
e 44 182
e 118 131
e 85 183
e 164 247
e 76 134
e 62 236
e 103 237
e 117 172
e 29 59
e 120 177
e 20 239
e 106 242
e 180 228
e 92 115
e 78 180
e 23 244
e 138 231
e 224 234
e 97 193
e 157 244
e 50 118
e 69 131
e 110 132
e 55 196
e 96 234
e 160 249
e 113 174
e 13 236
e 99 239
e 118 252
e 11 126
e 71 177
e 112 178
e 57 242
e 217 231
e 131 191
e 76 255
e 30 139
e 43 78
e 29 180
e 103 129
e 15 245
e 175 234
e 115 183
e 106 134
e 92 236
e 133 237
e 166 185
e 152 250
e 105 175
e 50 239
e 69 252
e 110 253
e 22 140
e 127 193
e 168 194
e 187 244
e 25 182
e 66 183
e 11 247
e 186 248
e 57 134
e 98 135
e 43 199
e 103 250
e 10 22
e 15 137
e 142 178
e 87 242
e 106 255
e 221 242
e 240 255
e 59 180
e 78 193
e 205 234
e 119 194
e 224 247
e 91 132
e 163 237
e 182 250
e 94 137
e 154 188
e 99 252
e 140 253
e 52 140
e 38 242
e 112 191
e 57 255
e 131 204
e 10 143
e 43 91
e 115 196
e 175 247
e 54 186
e 133 250
e 31 202
e 105 188
e 91 253
e 58 76
e 77 89
e 108 193
e 149 194
e 22 153
e 168 207
e 75 245
e 80 94
e 66 196
e 107 197
e 126 210
e 79 135
e 98 148
e 43 212
e 170 253
e 10 35
e 82 140
e 101 153
e 87 255
e 100 194
e 119 207
e 246 248
e 205 247
e 17 196
e 58 197
e 163 250
e 77 210
e 75 137
e 94 150
e 176 189
e 80 215
e 61 202
e 33 140
e 52 153
e 38 255
e 179 194
e 93 154
e 46 79
e 10 156
e 137 197
e 156 210
e 68 97
e 109 135
e 188 199
e 155 251
e 67 138
e 26 100
e 12 202
e 31 215
e 191 204
e 70 143
e 58 89
e 89 156
e 149 207
e 190 208
e 61 94
e 47 159
e 88 197
e 107 210
e 19 97
e 46 200
e 82 153
e 123 154
e 68 218
e 183 205
e 35 41
e 26 221
e 100 207
e 141 208
e 12 94
e 58 210
e 42 202
e 61 215
e 135 164
e 80 228
e 28 38
e 176 202
e 47 51
e 33 153
e 74 154
e 19 218
e 14 103
e 46 92
e 137 210
e 51 170
e 156 223
e 197 224
e 68 110
e 35 162
e 109 148
e 95 213
e 26 113
e 86 164
e 20 39
e 39 52
e 70 156
e 89 169
e 171 208
e 190 221
e 42 94
e 83 95
e 28 159
e 102 108
e 88 210
e 129 211
e 47 172
e 148 224
e 41 98
e 60 111
e 46 213
e 44 103
e 104 154
e 68 231
e 183 218
e 62 157
e 26 234
e 141 221
e 34 95
e 39 173
e 125 213
e 185 227
e 97 114
e 83 216
e 42 215
e 102 229
e 14 116
e 201 208
e 60 232
e 160 170
e 19 231
e 159 211
e 51 183
e 178 224
e 30 60
e 16 162
e 71 98
e 35 175
e 150 162
e 95 226
e 136 227
e 134 154
e 139 232
e 213 218
e 92 157
e 37 221
e 111 170
e 171 221
e 212 222
e 23 57
e 231 235
e 28 172
e 69 173
e 14 237
e 129 224
e 215 227
e 41 111
e 132 229
e 25 103
e 44 116
e 30 181
e 90 232
e 164 181
e 62 170
e 7 234
e 122 184
e 227 237
e 34 108
e 20 173
e 125 226
e 166 227
e 39 186
e 78 114
e 23 178
e 97 127
e 138 165
e 157 178
e 83 229
e 96 168
e 41 232
e 160 183
e 60 245
e 201 221
e 25 224
e 99 173
e 44 237
e 159 224
e 118 186
e 11 60
e 178 237
e 57 176
e 117 227
e 76 189
e 136 240
e 29 114
e 34 229
e 139 245
e 1 15
e 92 170
e 37 234
e 78 235
e 97 248
e 231 248
e 50 173
e 69 186
e 196 227
e 14 250
e 215 240
e 110 187
e 22 74
e 55 251
e 108 114
e 113 229
e 173 243
e 25 116
e 66 117
e 11 181
e 71 232
e 30 194
e 90 245
e 131 246
e 164 194
e 57 68
e 43 133
e 29 235
e 103 184
e 122 197
e 208 237
e 87 176
e 20 186
e 106 189
e 166 240
e 207 241
e 23 191
e 105 230
e 17 117
e 22 195
e 41 245
e 108 235
e 96 181
e 127 248
e 55 143
e 182 184
e 25 237
e 99 186
e 140 187
e 85 251
e 52 74
e 38 176
e 112 125
e 57 189
e 184 230
e 43 254
e 76 202
e 117 240
e 29 127
e 175 181
e 120 245
e 59 235
e 133 184
e 78 248
e 152 197
e 105 122
e 50 186
e 91 187
e 196 240
e 237 241
e 110 200
e 108 127
e 154 243
e 11 194
e 85 143
e 112 246
e 38 68
e 29 248
e 103 197
e 189 200
e 115 251
e 87 189
e 106 202
e 147 203
e 188 241
e 59 127
e 119 141
e 105 243
e 58 131
e 22 208
e 108 248
e 182 197
e 61 136
e 80 149
e 66 251
e 140 200
e 200 251
e 33 74
e 52 87
e 112 138
e 79 190
e 184 243
e 98 203
e 10 90
e 115 143
e 15 205
e 101 208
e 142 246
e 54 133
e 114 147
e 100 249
e 174 198
e 12 136
e 31 149
e 91 200
e 177 203
e 237 254
e 94 205
e 176 244
e 47 93
e 52 208
e 179 249
e 126 157
e 19 31
e 186 208
e 79 82
e 10 211
e 170 200
e 230 251
e 189 213
e 82 87
e 68 152
e 109 190
e 147 216
e 188 254
e 86 206
e 89 211
e 77 157
e 42 136
e 61 149
e 80 162
e 162 201
e 33 87
e 19 152
e 79 203
e 165 206
e 98 216
e 10 103
e 51 104
e 101 221
e 95 147
e 155 198
e 114 160
e 174 211
e 67 85
e 12 149
e 86 98
e 158 203
e 70 90
e 89 103
e 75 205
e 116 206
e 28 93
e 47 106
e 33 208
e 107 157
e 148 158
e 93 222
e 46 147
e 10 224
e 51 225
e 109 203
e 68 165
e 169 217
e 26 168
e 141 155
e 67 206
e 172 222
e 39 107
e 70 211
e 89 224
e 204 211
e 42 149
e 83 150
e 102 163
e 47 227
e 14 50
e 181 227
e 74 101
e 19 165
e 60 166
e 93 114
e 13 91
e 51 117
e 137 157
e 123 222
e 35 109
e 95 160
e 34 150
e 199 217
e 218 230
e 37 155
e 28 106
e 69 107
e 14 171
e 129 158
e 74 222
e 93 235
e 113 150
e 13 212
e 132 163
e 46 160
e 25 37
e 44 50
e 90 166
e 35 230
e 150 217
e 169 230
e 62 104
e 153 222
e 172 235
e 20 107
e 125 160
e 70 224
e 111 225
e 39 120
e 37 47
e 23 112
e 83 163
e 28 227
e 143 177
e 41 166
e 60 179
e 187 220
e 13 104
e 25 158
e 44 171
e 118 120
e 104 222
e 123 235
e 35 122
e 76 123
e 62 225
e 136 174
e 122 239
e 34 163
e 120 166
e 20 228
e 180 217
e 199 230
e 92 104
e 37 168
e 78 169
e 111 117
e 97 182
e 138 220
e 50 107
e 69 120
e 14 184
e 96 223
e 129 171
e 55 185
e 41 58
e 113 163
e 13 225
e 132 176
e 99 228
e 25 50
e 118 241
e 173 177
e 11 115
e 71 166
e 131 180
e 150 230
e 35 243
e 76 244
e 43 67
e 29 169
e 134 222
e 122 131
e 153 235
e 194 236
e 20 120
e 92 225
e 152 239
e 23 125
e 105 164
e 69 241
e 55 77
e 96 115
e 127 182
e 108 169
e 41 179
e 206 246
e 25 171
e 11 236
e 159 171
e 30 249
e 44 184
e 118 133
e 164 249
e 85 185
e 57 123
e 76 136
e 103 239
e 122 252
e 15 126
e 120 179
e 20 241
e 180 230
e 106 244
e 221 231
e 78 182
e 23 246
e 224 236
e 243 249
e 50 120
e 110 134
e 96 236
e 55 198
e 182 239
e 154 177
e 173 190
e 118 254
e 38 231
e 112 180
e 57 244
e 131 193
e 71 179
e 236 246
e 30 141
e 43 80
e 29 182
e 103 131
e 15 247
e 175 236
e 115 185
e 194 249
e 87 123
e 106 136
e 133 239
e 152 252
e 91 242
e 108 182
e 22 142
e 94 247
e 168 196
e 228 247
e 66 185
e 11 249
e 85 198
e 38 123
e 57 136
e 98 137
e 43 201
e 103 252
e 189 255
e 15 139
e 142 180
e 87 244
e 101 142
e 221 244
e 59 182
e 100 183
e 119 196
e 205 236
e 224 249
e 12 70
e 31 83
e 91 134
e 163 239
e 77 199
e 182 252
e 110 147
e 94 139
e 80 204
e 140 255
e 33 129
e 66 77
e 52 142
e 38 244
e 112 193
e 115 198
e 156 199
e 175 249
e 87 136
e 174 253
e 86 140
e 31 204
e 191 193
e 91 255
e 58 78
e 77 91
e 22 155
e 75 247
e 42 70
e 61 83
e 66 198
e 107 199
e 140 147
e 126 212
e 19 86
e 79 137
e 98 150
e 170 255
e 10 37
e 82 142
e 101 155
e 183 194
e 142 193
e 100 196
e 205 249
e 246 250
e 12 83
e 31 96
e 58 199
e 163 252
e 77 212
e 116 140
e 61 204
e 135 153
e 80 217
e 176 191
e 33 142
e 52 155
e 179 196
e 93 156
e 19 207
e 5 43
e 10 158
e 137 199
e 51 159
e 109 137
e 68 99
e 155 253
e 114 215
e 67 140
e 86 153
e 31 217
e 70 145
e 58 91
e 89 158
e 190 210
e 61 96
e 28 148
e 88 199
e 107 212
e 234 253
e 19 99
e 60 100
e 46 202
e 79 150
e 65 215
e 13 25
e 82 155
e 123 156
e 68 220
e 183 207
e 202 220
e 26 223
e 141 210
e 125 202
e 42 204
e 116 153
e 61 217
e 135 166
e 102 218
e 14 105
e 19 220
e 93 169
e 46 94
e 137 212
e 178 213
e 51 172
e 197 226
e 90 100
e 35 164
e 95 215
e 114 228
e 67 153
e 12 217
e 26 115
e 20 41
e 111 159
e 23 46
e 190 223
e 83 97
e 88 212
e 47 174
e 14 226
e 148 226
e 41 100
e 60 113
e 46 215
e 132 218
e 13 38
e 44 105
e 104 156
e 49 220
e 123 169
e 164 170
e 26 236
e 141 223
e 34 97
e 20 162
e 125 215
e 39 175
e 185 229
e 37 102
e 138 154
e 83 218
e 102 231
e 14 118
e 41 221
e 160 172
e 74 169
e 220 223
e 44 226
e 118 175
e 159 213
e 178 226
e 71 100
e 197 239
e 90 113
e 150 164
e 76 178
e 136 229
e 29 103
e 134 156
e 34 218
e 139 234
e 39 67
e 37 223
e 97 237
e 171 223
e 23 59
e 231 237
e 83 110
e 212 224
e 69 175
e 14 239
e 129 226
e 215 229
e 41 113
e 113 218
e 132 231
e 25 105
e 44 118
e 85 119
e 104 169
e 30 183
e 71 221
e 164 183
e 38 44
e 90 234
e 7 236
e 103 173
e 208 226
e 15 60
e 227 239
e 20 175
e 39 188
e 166 229
e 185 242
e 59 103
e 78 116
e 23 180
e 97 129
e 83 231
e 157 180
e 143 245
e 55 132
e 96 170
e 160 185
e 201 223
e 60 247
e 25 226
e 99 175
e 118 188
e 200 227
e 159 226
e 30 75
e 57 178
e 76 191
e 203 232
e 222 245
e 29 116
e 48 129
e 15 181
e 92 172
e 37 236
e 78 237
e 152 186
e 97 250
e 212 237
e 50 175
e 69 188
e 110 189
e 196 229
e 215 242
e 55 253
e 22 76
e 127 129
e 113 231
e 154 232
e 173 245
e 25 118
e 11 183
e 30 196
e 71 234
e 90 247
e 38 57
e 131 248
e 57 70
e 43 135
e 29 237
e 103 186
e 122 199
e 87 178
e 106 191
e 207 243
e 59 116
e 78 129
e 105 232
e 210 248
e 163 173
e 22 197
e 108 237
e 96 183
e 182 186
e 77 133
e 127 250
e 25 239
e 99 188
e 66 240
e 85 253
e 52 76
e 38 178
e 112 127
e 57 191
e 184 232
e 131 140
e 203 245
e 10 79
e 115 132
e 15 194
e 101 197
e 78 250
e 119 251
e 152 199
e 31 138
e 91 189
e 110 202
e 237 243
e 75 181
e 22 89
e 108 129
e 94 194
e 154 245
e 66 132
e 11 196
e 52 197
e 126 146
e 112 248
e 186 197
e 43 148
e 10 200
e 170 189
e 189 202
e 230 240
e 29 250
e 115 253
e 87 191
e 188 243
e 147 205
e 119 143
e 105 245
e 191 248
e 58 133
e 3 197
e 163 186
e 22 210
e 149 251
e 182 199
e 108 250
e 61 138
e 66 253
e 140 202
e 181 203
e 33 76
e 52 89
e 38 191
e 98 205
e 225 246
e 184 245
e 10 92
e 82 197
e 101 210
e 142 248
e 59 250
e 100 251
e 174 200
e 114 149
e 193 213
e 12 138
e 58 254
e 75 194
e 135 208
e 176 246
e 47 95
e 88 133
e 33 197
e 52 210
e 126 159
e 93 211
e 19 33
e 46 136
e 10 213
e 170 202
e 82 89
e 68 154
e 147 218
e 100 143
e 26 157
e 86 208
e 70 200
e 89 213
e 42 138
e 102 152
e 88 254
e 162 203
e 14 39
e 33 89
e 19 154
e 93 103
e 165 208
e 51 106
e 123 211
e 95 149
e 155 200
e 114 162
e 174 213
e 67 87
e 158 205
e 177 218
e 70 92
e 116 208
e 135 221
e 28 95
e 47 108
e 33 210
e 74 211
e 148 160
e 93 224
e 46 149
e 132 152
e 51 227
e 109 205
e 150 206
e 62 93
e 67 208
e 153 211
e 26 170
e 86 221
e 172 224
e 125 149
e 70 213
e 39 109
e 89 226
e 204 213
e 83 152
e 47 229
e 14 52
e 60 168
e 165 221
e 13 93
e 104 211
e 51 119
e 123 224
e 35 111
e 95 162
e 136 163
e 34 152
e 139 168
e 39 230
e 180 206
e 218 232
e 37 157
e 116 221
e 157 222
e 28 108
e 14 173
e 129 160
e 74 224
e 148 173
e 160 227
e 132 165
e 151 178
e 25 39
e 30 117
e 71 155
e 90 168
e 35 232
e 134 211
e 34 44
e 125 162
e 39 122
e 111 227
e 23 114
e 83 165
e 28 229
e 69 230
e 143 179
e 55 66
e 41 168
e 127 171
e 60 181
e 187 222
e 206 235
e 25 160
e 13 106
e 44 173
e 118 122
e 104 224
e 99 109
e 76 125
e 62 227
e 29 50
e 122 241
e 34 165
e 120 168
e 20 230
e 139 181
e 39 243
e 199 232
e 37 170
e 78 171
e 23 235
e 97 184
e 157 235
e 50 109
e 14 186
e 96 225
e 55 187
e 160 240
e 113 165
e 13 227
e 154 166
e 173 179
e 118 243
e 99 230
e 11 117
e 71 168
e 90 181
e 131 182
e 76 246
e 43 69
e 29 171
e 103 120
e 134 224
e 175 225
e 122 133
e 87 112
e 20 122
e 106 125
e 92 227
e 166 176
e 111 240
e 152 241
e 23 127
e 105 166
e 50 230
e 69 243
e 110 244
e 229 232
e 22 131
e 55 79
e 127 184
e 108 171
e 187 235
e 25 173
e 99 122
e 30 251
e 38 112
e 164 251
e 57 125
e 76 138
e 117 176
e 103 241
e 43 190
e 122 254
e 120 181
e 20 243
e 106 246
e 78 184
e 205 225
e 138 235
e 23 248
e 110 136
e 55 200
e 182 241
e 154 179
e 140 244
e 52 131
e 112 182
e 57 246
e 217 235
e 29 184
e 115 187
e 15 249
e 103 133
e 194 251
e 235 252
e 87 125
e 106 138
e 133 241
e 152 254
e 193 255
e 105 179
e 50 243
e 91 244
e 77 80
e 108 184
e 149 185
e 168 198
e 228 249
e 80 85
e 66 187
e 11 251
e 85 200
e 126 201
e 186 252
e 38 125
e 43 203
e 170 244
e 103 254
e 10 26
e 221 246
e 59 184
e 100 185
e 119 198
e 31 85
e 91 136
e 163 241
e 77 201
e 94 141
e 80 206
e 33 131
e 38 246
e 179 185
e 79 247
e 10 147
e 82 252
e 115 200
e 156 201
e 68 88
e 109 126
e 147 152
e 133 254
e 12 193
e 58 80
e 89 147
e 75 249
e 149 198
e 168 211
e 61 85
e 80 98
e 33 252
e 107 201
e 47 150
e 19 88
e 79 139
e 24 203
e 98 152
e 101 157
e 109 247
e 183 196
e 100 198
e 141 199
e 246 252
e 12 85
e 58 201
e 163 254
e 204 255
e 42 193
e 116 142
e 61 206
e 176 193
e 75 141
e 195 206
e 135 155
e 33 144
e 179 198
e 46 83
e 10 160
e 68 101
e 109 139
e 95 204
e 155 255
e 114 217
e 67 142
e 12 206
e 86 155
e 26 104
e 39 43
e 70 147
e 89 160
e 171 199
e 190 212
e 42 85
e 28 150
e 47 163
e 148 215
e 19 101
e 60 102
e 46 204
e 123 158
e 68 222
e 26 225
e 141 212
e 34 86
e 39 164
e 125 204
e 37 91
e 42 206
e 102 220
e 14 107
e 74 158
e 19 222
e 60 223
e 93 171
e 13 148
e 46 96
e 51 174
e 178 215
e 197 228
e 90 102
e 35 166
e 150 153
e 95 217
e 114 230
e 34 207
e 70 160
e 37 212
e 171 212
e 190 225
e 28 163
e 69 164
e 14 228
e 129 215
e 102 112
e 148 228
e 41 102
e 60 115
e 46 217
e 132 220
e 25 94
e 44 107
e 104 158
e 90 223
e 123 171
e 35 58
e 208 215
e 122 175
e 20 164
e 39 177
e 125 217
e 185 231
e 37 104
e 78 105
e 23 169
e 97 118
e 83 220
e 157 169
e 138 156
e 143 234
e 14 120
e 96 159
e 41 223
e 160 174
e 60 236
e 201 212
e 220 225
e 99 164
e 44 228
e 118 177
e 178 228
e 71 102
e 90 115
e 35 179
e 76 180
e 117 218
e 136 231
e 29 105
e 34 220
e 153 171
e 139 236
e 37 225
e 111 174
e 152 175
e 97 239
e 23 61
e 50 164
e 69 177
e 14 241
e 196 218
e 55 242
e 129 228
e 41 115
e 113 220
e 173 234
e 25 107
e 71 223
e 90 236
e 164 185
e 29 226
e 103 175
e 122 188
e 208 228
e 20 177
e 106 180
e 59 105
e 185 244
e 138 169
e 97 131
e 143 247
e 55 134
e 96 172
e 41 236
e 25 228
e 99 177
e 44 241
e 159 228
e 118 190
e 30 77
e 71 115
e 57 180
e 76 193
e 203 234
e 222 247
e 29 118
e 15 183
e 120 236
e 139 249
e 59 226
e 133 175
e 92 174
e 97 252
e 50 177
e 110 191
e 196 231
e 215 244
e 55 255
e 108 118
e 22 78
e 127 131
e 154 234
e 173 247
e 11 185
e 85 134
e 126 135
e 71 236
e 112 237
e 38 59
e 43 137
e 29 239
e 115 242
e 15 75
e 87 180
e 106 193
e 207 245
e 59 118
e 100 119
e 105 234
e 77 135
e 22 199
e 182 188
e 127 252
e 168 253
e 108 239
e 163 175
e 25 241
e 66 242
e 140 191
e 85 255
e 200 242
e 80 140
e 52 78
e 112 129
e 57 193
e 98 194
e 184 234
e 203 247
e 115 134
e 15 196
e 175 185
e 101 199
e 142 237
e 133 188
e 78 252
e 119 253
e 193 202
e 174 189
e 31 140
e 91 191
e 177 194
e 110 204
e 75 183
e 22 91
e 94 196
e 154 247
e 66 134
e 107 135
e 33 186
e 126 148
e 52 199
e 198 253
e 186 199
e 112 250
e 115 255
e 189 204
e 230 242
e 87 193
e 147 207
e 100 132
e 86 197
e 12 19
e 191 250
e 58 135
e 3 199
e 89 202
e 77 148
e 22 212
e 149 253
e 42 127
e 163 188
e 61 140
e 80 153
e 66 255
e 181 205
e 33 78
e 19 143
e 52 91
e 79 194
e 98 207
e 225 248
e 184 247
e 51 95
e 82 199
e 142 250
e 101 212
e 95 138
e 100 253
e 174 202
e 193 215
e 26 38
e 67 76
e 86 89
e 31 153
e 177 207
e 75 196
e 116 197
e 135 210
e 88 135
e 47 97
e 107 148
e 52 212
e 93 213
e 179 253
e 33 199
e 46 138
e 10 215
e 170 204
e 109 194
e 67 197
e 26 159
e 86 210
e 125 138
e 70 202
e 58 148
e 89 215
e 42 140
e 61 153
e 102 154
e 47 218
e 162 205
e 14 41
e 181 218
e 74 92
e 19 156
e 93 105
e 165 210
e 137 148
e 82 212
e 51 108
e 123 213
e 35 100
e 26 51
e 67 89
e 34 141
e 199 208
e 116 210
e 135 223
e 28 97
e 14 162
e 129 149
e 74 213
e 88 148
e 93 226
e 132 154
e 68 169
e 150 208
e 35 221
e 169 221
e 109 207
e 62 95
e 26 172
e 153 213
e 172 226
e 20 98
e 70 215
e 23 103
e 83 154
e 28 218
e 47 231
e 162 218
e 74 105
e 41 157
e 60 170
e 165 223
e 206 224
e 13 95
e 44 162
e 104 213
e 123 226
e 164 227
e 35 113
e 117 152
e 76 114
e 29 39
e 34 154
e 120 157
e 180 208
e 139 170
e 199 221
e 39 232
e 37 159
e 138 211
e 97 173
e 157 224
e 50 98
e 69 111
e 129 162
e 74 226
e 160 229
e 113 154
e 118 232
e 30 119
e 71 157
e 90 170
e 35 234
e 150 221
e 62 108
e 103 109
e 134 213
e 23 245
e 194 227
e 153 226
e 20 111
e 111 229
e 23 116
e 69 232
e 143 181
e 96 106
e 41 170
e 127 173
e 60 183
e 187 224
e 55 68
e 206 237
e 13 108
e 99 111
e 44 175
e 159 162
e 104 226
e 25 162
e 57 114
e 76 127
e 117 165
e 136 178
e 103 230
e 29 52
e 122 243
e 15 117
e 120 170
e 20 232
e 139 183
e 39 245
e 180 221
e 106 235
e 78 173
e 23 237
e 138 224
e 157 237
e 50 111
e 110 125
e 55 189
e 96 227
e 160 242
e 154 168
e 13 229
e 99 232
e 118 245
e 30 132
e 71 170
e 57 235
e 217 224
e 76 248
e 131 184
e 43 71
e 29 173
e 103 122
e 134 226
e 175 227
e 122 135
e 194 240
e 1 74
e 87 114
e 92 229
e 166 178
e 133 230
e 152 243
e 45 117
e 105 168
e 50 232
e 69 245
e 110 246
e 108 173
e 22 133
e 127 186
e 96 119
e 187 237
e 25 175
e 66 176
e 11 240
e 85 189
e 30 253
e 145 240
e 186 241
e 57 127
e 103 243
e 189 246
e 101 133
e 87 235
e 142 171
e 59 173
e 78 186
e 205 227
e 119 187
e 243 253
e 31 74
e 91 125
e 110 138
e 163 230
e 182 243
e 22 254
e 22 25
e 55 202
e 75 117
e 154 181
e 99 245
e 140 246
e 11 132
e 52 133
e 38 235
e 112 184
e 57 248
e 131 197
e 217 237
e 98 249
e 115 189
e 15 251
e 175 240
e 216 241
e 133 243
e 105 181
e 91 246
e 17 68
e 58 69
e 77 82
e 149 187
e 94 251
e 168 200
e 228 251
e 61 74
e 66 189
e 11 253
e 85 202
e 126 203
e 52 254
e 186 254
e 38 127
e 19 77
e 98 141
e 43 205
e 170 246
e 10 28
e 82 133
e 87 248
e 100 187
e 205 240
e 119 200
e 12 74
e 58 190
e 77 203
e 163 243
e 3 25
e 33 133
e 93 147
e 79 249
e 198 200
e 38 248
e 65 85
e 10 149
e 82 254
e 156 203
e 68 90
e 155 244
e 114 206
e 26 93
e 31 208
e 191 197
e 158 249
e 70 136
e 58 82
e 89 149
e 75 251
e 149 200
e 42 74
e 61 87
e 47 152
e 33 254
e 107 203
e 88 190
e 79 141
e 123 147
e 109 249
e 183 198
e 202 211
e 67 252
e 100 200
e 141 201
e 12 87
e 53 88
e 58 203
e 61 208
e 135 157
e 80 221
e 74 147
e 179 200
e 93 160
e 5 47
e 46 85
e 137 203
e 197 217
e 109 141
e 68 103
e 35 155
e 26 106
e 12 208
e 86 157
e 70 149
e 89 162
e 171 201
e 42 87
e 83 88
e 28 152
e 88 203
e 47 165
e 148 217
e 41 91
e 46 206
e 104 147
e 68 224
e 183 211
e 35 47
e 62 150
e 95 98
e 26 227
e 34 88
e 39 166
e 125 206
e 37 93
e 97 107
e 42 208
e 102 222
e 14 109
e 74 160
e 19 224
e 60 225
e 13 150
e 118 166
e 51 176
e 178 217
e 197 230
e 71 91
e 90 104
e 35 168
e 150 155
e 153 160
e 139 225
e 39 58
e 92 150
e 111 163
e 23 50
e 28 165
e 69 166
e 14 230
e 129 217
e 148 230
e 60 117
e 132 222
e 13 42
e 104 160
e 30 174
e 90 225
e 164 174
e 62 163
e 122 177
e 34 101
e 20 166
e 39 179
e 166 220
e 37 106
e 78 107
e 23 171
e 97 120
e 138 158
e 83 222
e 102 235
e 143 236
e 55 123
e 41 225
e 160 176
e 13 163
e 99 166
e 44 230
e 159 217
e 118 179
e 30 66
e 16 168
e 71 104
e 90 117
e 117 220
e 76 182
e 222 236
e 29 107
e 134 160
e 34 222
e 120 225
e 20 58
e 37 227
e 111 176
e 152 177
e 231 241
e 50 166
e 69 179
e 14 243
e 110 180
e 22 67
e 113 222
e 132 235
e 25 109
e 66 110
e 11 174
e 85 123
e 71 225
e 30 187
e 164 187
e 131 239
e 43 126
e 29 228
e 122 190
e 87 169
e 106 182
e 185 246
e 59 107
e 23 184
e 105 223
e 138 171
e 143 249
e 96 174
e 55 136
e 127 241
e 108 228
e 25 230
e 99 179
e 44 243
e 200 231
e 52 67
e 57 182
e 43 247
e 203 236
e 222 249
e 29 120
e 15 185
e 59 228
e 133 177
e 78 241
e 152 190
e 97 254
e 105 115
e 50 179
e 91 180
e 110 193
e 108 120
e 22 80
e 94 185
e 154 236
e 66 123
e 11 187
e 85 136
e 52 188
e 112 239
e 126 137
e 131 252
e 43 139
e 170 180
e 103 190
e 115 244
e 29 241
e 15 77
e 87 182
e 147 196
e 188 234
e 59 120
e 119 134
e 105 236
e 191 239
e 210 252
e 77 137
e 22 201
e 108 241
e 127 254
e 168 255
e 80 142
e 66 244
e 140 193
e 33 67
e 200 244
e 52 80
e 112 131
e 79 183
e 98 196
e 203 249
e 244 250
e 10 83
e 115 136
e 15 198
e 101 201
e 142 239
e 59 241
e 133 190
e 100 242
e 119 255
e 193 204
e 12 129
e 91 193
e 177 196
e 237 247
e 75 185
e 94 198
e 154 249
e 33 188
e 107 137
e 52 201
e 126 150
e 112 252
e 19 24
e 198 255
e 186 201
e 10 204
e 170 193
e 189 206
e 109 183
e 188 247
e 100 134
e 12 250
e 191 252
e 58 137
e 163 190
e 89 204
e 149 255
e 42 129
e 61 142
e 121 193
e 80 155
e 162 194
e 181 207
e 33 80
e 79 196
e 165 199
e 10 96
e 51 97
e 82 201
e 142 252
e 183 253
e 95 140
e 114 153
e 100 255
e 174 204
e 67 78
e 86 91
e 31 155
e 158 196
e 89 96
e 75 198
e 116 199
e 42 250
e 135 212
e 176 250
e 28 86
e 47 99
e 33 201
e 107 150
e 93 215
e 179 255
e 46 140
e 10 217
e 109 196
e 68 158
e 169 210
e 67 199
e 141 148
e 172 215
e 39 100
e 70 204
e 125 140
e 42 142
e 28 207
e 102 156
e 47 220
e 162 207
e 14 43
e 181 220
e 74 94
e 19 158
e 60 159
e 165 212
e 51 110
e 104 202
e 137 150
e 123 215
e 35 102
e 95 153
e 155 204
e 34 143
e 199 210
e 37 148
e 70 96
e 116 212
e 28 99
e 69 100
e 14 164
e 74 215
e 160 218
e 93 228
e 113 143
e 46 153
e 51 231
e 211 220
e 90 159
e 35 223
e 150 210
e 169 223
e 62 97
e 134 202
e 26 174
e 153 215
e 20 100
e 39 113
e 70 217
e 125 153
e 111 218
e 23 105
e 83 156
e 102 169
e 143 170
e 55 57
e 41 159
e 187 213
e 206 226
e 13 97
e 44 164
e 104 215
e 123 228
e 35 115
e 117 154
e 62 218
e 29 41
e 34 156
e 120 159
e 20 221
e 180 210
e 39 234
e 139 172
e 92 97
e 23 226
e 97 175
e 138 213
e 157 226
e 50 100
e 69 113
e 14 177
e 55 178
e 129 164
e 160 231
e 41 51
e 113 156
e 13 218
e 99 221
e 25 43
e 118 234
e 11 108
e 90 172
e 35 236
e 43 60
e 29 162
e 62 110
e 48 175
e 153 228
e 194 229
e 20 113
e 106 116
e 92 218
e 111 231
e 152 232
e 23 118
e 105 157
e 50 221
e 69 234
e 96 108
e 55 70
e 127 175
e 41 172
e 187 226
e 206 239
e 25 164
e 44 177
e 85 178
e 30 242
e 159 164
e 164 242
e 57 116
e 76 129
e 62 231
e 103 232
e 122 245
e 29 54
e 15 119
e 120 172
e 20 234
e 180 223
e 221 224
e 106 237
e 59 162
e 92 110
e 78 175
e 23 239
e 97 188
e 138 226
e 50 113
e 91 114
e 96 229
e 55 191
e 182 232
e 94 119
e 99 234
e 173 183
e 118 247
e 71 172
e 38 224
e 57 237
e 131 186
e 217 226
e 30 134
e 112 173
e 76 250
e 29 175
e 115 178
e 15 240
e 175 229
e 1 76
e 87 116
e 106 129
e 92 231
e 133 232
e 152 245
e 50 234
e 91 235
e 110 248
e 228 240
e 25 177
e 66 178
e 11 242
e 85 191
e 30 255
e 38 116
e 57 129
e 189 248
e 15 132
e 142 173
e 87 237
e 101 135
e 59 175
e 78 188
e 119 189
e 31 76
e 163 232
e 110 140
e 182 245
e 75 119
e 94 132
e 80 197
e 140 248
e 33 122
e 52 135
e 38 237
e 112 186
e 131 199
e 98 251
e 115 191
e 15 253
e 175 242
e 54 181
e 133 245
e 174 246
e 86 133
e 31 197
e 91 248
e 177 251
e 58 71
e 89 138
e 75 240
e 94 253
e 168 202
e 61 76
e 228 253
e 66 191
e 11 255
e 126 205
e 19 79
e 98 143
e 43 207
e 170 248
e 10 30
e 82 135
e 101 148
e 87 250
e 142 186
e 100 189
e 119 202
e 31 89
e 163 245
e 204 246
e 75 132
e 116 133
e 61 197
e 33 135
e 52 148
e 179 189
e 79 251
e 198 202
e 93 149
e 46 74
e 51 152
e 155 246
e 114 208
e 67 133
e 12 197
e 26 95
e 31 210
e 158 251
e 70 138
e 75 253
e 116 254
e 190 203
e 149 202
e 42 76
e 61 89
e 47 154
e 107 205
e 234 246
e 126 218
e 19 92
e 82 148
e 123 149
e 109 251
e 183 200
e 202 213
e 100 202
e 67 254
e 141 203
e 34 77
e 58 205
e 37 82
e 42 197
e 61 210
e 176 197
e 102 211
e 28 33
e 14 98
e 74 149
e 19 213
e 93 162
e 51 165
e 137 205
e 156 218
e 35 157
e 109 143
e 95 208
e 114 221
e 26 108
e 12 210
e 111 152
e 171 203
e 83 90
e 28 154
e 88 205
e 129 206
e 41 93
e 60 106
e 46 208
e 132 211
e 44 98
e 104 149
e 123 162
e 68 226
e 62 152
e 26 229
e 34 90
e 20 155
e 39 168
e 125 208
e 185 222
e 37 95
e 23 160
e 42 210
e 97 109
e 138 147
e 102 224
e 157 160
e 14 111
e 74 162
e 60 227
e 13 152
e 118 168
e 30 55
e 71 93
e 35 170
e 76 171
e 150 157
e 136 222
e 134 149
e 34 211
e 153 162
e 139 227
e 20 47
e 92 152
e 111 165
e 97 230
e 212 217
e 23 52
e 83 103
e 50 155
e 69 168
e 14 232
e 41 106
e 113 211
e 132 224
e 13 44
e 25 98
e 44 111
e 104 162
e 30 176
e 90 227
e 164 176
e 62 165
e 103 166
e 122 179
e 227 232
e 20 168
e 106 171
e 39 181
e 166 222
e 125 221
e 185 235
e 59 96
e 78 109
e 23 173
e 138 160
e 83 224
e 55 125
e 41 227
e 127 230
e 60 240
e 13 165
e 99 168
e 44 232
e 11 55
e 178 232
e 30 68
e 76 184
e 117 222
e 136 235
e 29 109
e 34 224
e 120 227
e 139 240
e 1 10
e 92 165
e 133 166
e 78 230
e 152 179
e 212 230
e 231 243
e 50 168
e 69 181
e 196 222
e 55 246
e 215 235
e 22 69
e 154 225
e 173 238
e 25 111
e 66 112
e 11 176
e 30 189
e 145 176
e 90 240
e 38 50
e 71 227
e 131 241
e 29 230
e 103 179
e 15 66
e 87 171
e 106 184
e 166 235
e 207 236
e 59 109
e 78 122
e 119 123
e 105 225
e 210 241
e 143 251
e 108 230
e 96 176
e 127 243
e 55 138
e 22 190
e 25 232
e 140 182
e 85 246
e 11 68
e 52 69
e 38 171
e 57 184
e 184 225
e 117 235
e 43 249
e 222 251
e 115 125
e 15 187
e 175 176
e 120 240
e 59 230
e 133 179
e 78 243
e 119 244
e 105 117
e 31 131
e 91 182
e 196 235
e 22 82
e 108 122
e 75 174
e 94 187
e 173 251
e 11 189
e 52 190
e 126 139
e 112 241
e 131 254
e 43 141
e 170 182
e 115 246
e 87 184
e 147 198
e 188 236
e 100 123
e 119 136
e 31 252
e 191 241
e 210 254
e 58 126
e 77 139
e 108 243
e 22 203
e 149 244
e 61 131
e 66 246
e 140 195
e 181 196
e 33 69
e 52 82
e 38 184
e 79 185
e 98 198
e 10 85
e 82 190
e 142 241
e 101 203
e 155 180
e 114 142
e 174 193
e 193 206
e 12 131
e 158 185
e 58 247
e 177 198
e 237 249
e 75 187
e 61 252
e 94 200
e 135 201
e 176 239
e 88 126
e 47 88
e 107 139
e 52 203
e 126 152
e 112 254
e 19 26
e 179 244
e 33 190
e 10 206
e 68 147
e 109 185
e 188 249
e 67 188
e 100 136
e 12 252
e 26 150
e 86 201
e 232 255
e 70 193
e 58 139
e 77 152
e 42 131
e 80 157
e 162 196
e 88 247
e 33 82
e 74 83
e 93 96
e 79 198
e 165 201
e 225 252
e 51 99
e 82 203
e 123 204
e 142 254
e 35 91
e 155 193
e 174 206
e 67 80
e 86 93
e 158 198
e 177 211
e 70 85
e 89 98
e 116 201
e 176 252
e 28 88
e 88 139
e 129 140
e 74 204
e 148 153
e 93 217
e 47 101
e 33 203
e 46 142
e 51 220
e 68 160
e 109 198
e 169 212
e 62 86
e 67 201
e 26 163
e 153 204
e 213 255
e 172 217
e 125 142
e 70 206
e 102 158
e 47 222
e 74 96
e 19 160
e 206 215
e 13 86
e 51 112
e 104 204
e 123 217
e 35 104
e 95 155
e 136 156
e 62 207
e 180 199
e 39 223
e 199 212
e 218 225
e 37 150
e 157 215
e 28 101
e 69 102
e 14 166
e 74 217
e 148 166
e 46 155
e 13 207
e 132 158
e 30 110
e 35 225
e 150 212
e 62 99
e 134 204
e 172 230
e 20 102
e 125 155
e 92 207
e 111 220
e 37 42
e 83 158
e 28 222
e 102 171
e 143 172
e 69 223
e 55 59
e 187 215
e 206 228
e 13 99
e 44 166
e 104 217
e 164 231
e 57 105
e 76 118
e 62 220
e 136 169
e 29 43
e 20 223
e 180 212
e 39 236
e 199 225
e 139 174
e 37 163
e 78 164
e 111 112
e 97 177
e 138 215
e 23 228
e 14 179
e 55 180
e 110 116
e 96 218
e 113 158
e 99 223
e 118 236
e 11 110
e 30 123
e 90 174
e 131 175
e 76 239
e 29 164
e 103 113
e 48 177
e 175 218
e 134 217
e 194 231
e 87 105
e 20 115
e 106 118
e 166 169
e 152 234
e 23 120
e 105 159
e 50 223
e 69 236
e 108 164
e 41 174
e 96 110
e 127 177
e 187 228
e 25 166
e 44 179
e 85 180
e 30 244
e 145 231
e 11 231
e 38 105
e 164 244
e 57 118
e 117 169
e 43 183
e 103 234
e 76 131
e 122 247
e 20 236
e 106 239
e 59 164
e 78 177
e 23 241
e 138 228
e 205 218
e 97 190
e 91 116
e 110 129
e 55 193
e 182 234
e 96 231
e 99 236
e 140 237
e 173 185
e 11 123
e 38 226
e 112 175
e 217 228
e 76 252
e 43 75
e 29 177
e 103 126
e 15 242
e 115 180
e 235 245
e 87 118
e 133 234
e 152 247
e 193 248
e 105 172
e 50 236
e 91 237
e 110 250
e 22 137
e 108 177
e 94 242
e 168 191
e 127 190
e 228 242
e 66 180
e 11 244
e 85 193
e 126 194
e 186 245
e 38 118
e 98 132
e 43 196
e 170 237
e 10 19
e 189 250
e 15 134
e 101 137
e 87 239
e 142 175
e 106 252
e 221 239
e 147 253
e 18 139
e 59 177
e 205 231
e 119 191
e 224 244
e 91 129
e 77 194
e 223 248
e 140 250
e 52 137
e 38 239
e 112 188
e 98 253
e 10 140
e 115 193
e 156 194
e 15 255
e 109 119
e 133 247
e 174 248
e 12 186
e 177 253
e 89 140
e 75 242
e 149 191
e 168 204
e 61 78
e 80 91
e 66 193
e 107 194
e 33 245
e 47 143
e 126 207
e 79 132
e 170 250
e 142 188
e 109 240
e 101 150
e 183 189
e 68 202
e 119 204
e 58 194
e 204 248
e 75 134
e 116 135
e 61 199
e 135 148
e 80 212
e 162 251
e 176 186
e 33 137
e 19 202
e 179 191
e 79 253
e 198 204
e 46 76
e 10 153
e 137 194
e 51 154
e 156 207
e 68 94
e 95 197
e 155 248
e 114 210
e 67 135
e 12 199
e 86 148
e 31 212
e 158 253
e 26 97
e 70 140
e 75 255
e 149 204
e 190 205
e 42 78
e 28 143
e 88 194
e 47 156
e 107 207
e 148 208
e 19 94
e 60 95
e 46 197
e 13 20
e 104 138
e 68 215
e 183 202
e 202 215
e 34 79
e 39 157
e 58 207
e 125 197
e 42 199
e 116 148
e 102 213
e 14 100
e 19 215
e 93 164
e 46 89
e 137 207
e 178 208
e 35 159
e 95 210
e 114 223
e 134 138
e 67 148
e 34 200
e 26 110
e 70 153
e 37 205
e 111 154
e 171 205
e 23 41
e 190 218
e 83 92
e 102 105
e 14 221
e 41 95
e 60 108
e 46 210
e 13 33
e 123 164
e 62 154
e 122 168
e 141 218
e 26 231
e 34 92
e 20 157
e 125 210
e 39 170
e 185 224
e 37 97
e 23 162
e 138 149
e 83 213
e 97 111
e 102 226
e 143 227
e 14 113
e 96 152
e 41 216
e 55 114
e 60 229
e 99 157
e 44 221
e 159 208
e 118 170
e 11 44
e 178 221
e 30 57
e 197 234
e 35 172
e 117 211
e 76 173
e 136 224
e 29 98
e 34 213
e 153 164
e 139 229
e 92 154
e 37 218
e 97 232
e 171 218
e 231 232
e 50 157
e 69 170
e 14 234
e 55 235
e 215 224
e 129 221
e 41 108
e 113 213
e 132 226
e 173 227
e 25 100
e 44 113
e 85 114
e 30 178
e 90 229
e 164 178
e 103 168
e 208 221
e 122 181
e 15 55
e 20 170
e 106 173
e 166 224
e 59 98
e 78 111
e 23 175
e 83 226
e 143 240
e 96 165
e 41 229
e 25 221
e 99 170
e 44 234
e 159 221
e 200 222
e 11 57
e 118 183
e 38 160
e 30 70
e 57 173
e 71 108
e 76 186
e 117 224
e 136 237
e 222 240
e 29 111
e 15 176
e 120 229
e 78 232
e 97 245
e 212 232
e 50 170
e 91 171
e 55 248
e 215 237
e 113 226
e 173 240
e 11 178
e 85 127
e 71 229
e 112 230
e 131 243
e 29 232
e 103 181
e 115 235
e 15 68
e 87 173
e 106 186
e 166 237
e 119 125
e 105 227
e 210 243
e 163 168
e 108 232
e 127 245
e 168 246
e 80 133
e 66 235
e 140 184
e 25 234
e 200 235
e 85 248
e 52 71
e 38 173
e 112 122
e 57 186
e 184 227
e 43 251
e 203 240
e 98 187
e 222 253
e 115 127
e 15 189
e 175 178
e 142 230
e 59 232
e 78 245
e 119 246
e 31 133
e 91 184
e 177 187
e 196 237
e 110 197
e 77 249
e 75 176
e 94 189
e 80 254
e 154 240
e 66 127
e 126 141
e 112 243
e 43 143
e 115 248
e 230 235
e 189 197
e 87 186
e 147 200
e 207 251
e 100 125
e 86 190
e 105 240
e 191 243
e 119 138
e 163 181
e 108 245
e 149 246
e 61 133
e 121 184
e 66 248
e 181 198
e 33 71
e 19 136
e 79 187
e 24 251
e 98 200
e 244 254
e 10 87
e 51 88
e 101 205
e 142 243
e 12 133
e 158 187
e 237 251
e 70 74
e 75 189
e 116 190
e 135 203
e 47 90
e 107 141
e 52 205
e 179 246
e 93 206
e 19 28
e 126 154
e 46 131
e 10 208
e 137 249
e 170 197
e 169 201
e 188 251
e 67 190
e 12 254
e 86 203
e 172 206
e 58 141
e 89 208
e 42 133
e 102 147
e 47 211
e 162 198
e 14 34
e 181 211
e 74 85
e 19 149
e 46 252
e 165 203
e 79 200
e 51 101
e 82 205
e 123 206
e 35 93
e 114 157
e 158 200
e 199 201
e 42 254
e 116 203
e 176 254
e 28 90
e 14 155
e 129 142
e 74 206
e 148 155
e 88 141
e 132 147
e 51 222
e 68 162
e 109 200
e 150 201
e 62 88
e 67 203
e 153 206
e 26 165
e 20 91
e 39 104
e 70 208
e 23 96
e 28 211
e 102 160
e 47 224
e 162 211
e 14 47
e 41 150
e 146 203
