p edge 255 13743
e 165 216
e 206 217
e 32 101
e 123 219
e 16 93
e 35 106
e 62 209
e 29 32
e 53 160
e 139 163
e 6 48
e 37 152
e 56 165
e 9 90
e 50 91
e 148 168
e 160 222
e 41 42
e 13 209
e 132 160
e 32 222
e 25 34
e 192 211
e 44 47
e 30 112
e 16 214
e 71 150
e 35 227
e 90 163
e 150 214
e 2 50
e 7 165
e 153 219
e 194 220
e 20 104
e 106 107
e 6 169
e 92 209
e 4 96
e 23 109
e 9 211
e 83 160
e 28 224
e 143 174
e 36 48
e 55 61
e 41 163
e 96 99
e 206 230
e 25 155
e 99 104
e 44 168
e 16 106
e 29 45
e 48 58
e 34 160
e 20 225
e 6 61
e 4 217
e 37 165
e 23 230
e 110 118
e 96 220
e 160 235
e 8 107
e 27 120
e 113 160
e 99 225
e 173 174
e 25 47
e 30 125
e 16 227
e 76 241
e 43 64
e 103 115
e 122 128
e 1 67
e 106 120
e 6 182
e 4 109
e 45 110
e 64 123
e 105 161
e 17 48
e 36 61
e 96 112
e 228 231
e 25 168
e 66 169
e 99 117
e 30 246
e 57 120
e 2 184
e 122 249
e 1 188
e 20 238
e 106 241
e 161 177
e 240 241
e 18 128
e 4 230
e 23 243
e 64 244
e 205 220
e 224 233
e 31 67
e 17 169
e 243 246
e 3 5
e 8 120
e 140 239
e 76 254
e 24 64
e 29 179
e 1 80
e 18 249
e 133 236
e 152 249
e 64 136
e 105 174
e 17 61
e 58 62
e 3 126
e 8 241
e 149 180
e 168 193
e 209 231
e 61 67
e 228 244
e 66 182
e 43 198
e 84 236
e 10 21
e 189 252
e 1 201
e 106 254
e 54 64
e 40 129
e 73 77
e 12 67
e 17 182
e 3 247
e 3 18
e 182 249
e 33 126
e 38 241
e 79 242
e 93 140
e 179 180
e 5 27
e 65 78
e 10 142
e 82 247
e 68 83
e 109 121
e 128 134
e 73 198
e 67 124
e 3 139
e 89 142
e 42 67
e 209 244
e 33 247
e 126 209
e 19 83
e 24 198
e 65 199
e 63 126
e 128 255
e 202 204
e 21 129
e 40 142
e 100 193
e 246 247
e 58 196
e 144 199
e 77 209
e 9 11
e 135 150
e 33 139
e 74 140
e 198 206
e 5 40
e 46 78
e 32 143
e 65 91
e 156 209
e 68 96
e 7 86
e 26 99
e 67 137
e 86 150
e 72 215
e 130 193
e 171 194
e 9 132
e 107 209
e 148 210
e 234 250
e 19 96
e 65 212
e 151 215
e 192 253
e 32 35
e 16 27
e 35 40
e 7 207
e 26 220
e 141 207
e 39 159
e 144 212
e 56 99
e 9 24
e 102 215
e 27 41
e 32 156
e 137 209
e 178 210
e 30 46
e 16 148
e 7 99
e 53 215
e 20 38
e 39 51
e 4 30
e 23 43
e 9 145
e 14 223
e 148 223
e 41 97
e 146 150
e 5 174
e 132 215
e 25 89
e 90 218
e 164 167
e 16 40
e 2 105
e 7 220
e 20 159
e 37 99
e 23 164
e 97 113
e 83 215
e 138 151
e 143 229
e 55 116
e 41 218
e 96 154
e 60 231
e 8 41
e 160 169
e 201 207
e 25 210
e 99 159
e 219 224
e 30 59
e 16 161
e 2 226
e 117 213
e 136 226
e 29 100
e 48 113
e 34 215
e 139 231
e 20 51
e 6 116
e 37 220
e 92 156
e 111 169
e 4 43
e 212 221
e 23 56
e 231 234
e 196 213
e 215 226
e 41 110
e 113 215
e 132 228
e 25 102
e 85 116
e 30 180
e 90 231
e 38 41
e 164 180
e 2 118
e 29 221
e 20 172
e 106 175
e 6 237
e 4 164
e 23 177
e 64 178
e 17 103
e 50 51
e 96 167
e 41 231
e 8 54
e 25 223
e 44 236
e 85 237
e 140 173
e 159 223
e 52 60
e 38 162
e 200 224
e 29 113
e 115 116
e 15 178
e 120 231
e 1 14
e 6 129
e 18 183
e 45 57
e 64 70
e 17 224
e 105 108
e 3 60
e 215 239
e 108 113
e 66 116
e 30 193
e 71 231
e 38 54
e 24 119
e 43 132
e 29 234
e 84 170
e 170 173
e 1 135
e 106 188
e 6 250
e 147 189
e 119 127
e 64 191
e 105 229
e 17 116
e 3 181
e 163 170
e 182 183
e 80 135
e 66 237
e 33 60
e 24 240
e 98 189
e 184 229
e 10 76
e 54 119
e 73 132
e 59 234
e 174 184
e 193 197
e 17 237
e 177 189
e 237 240
e 3 73
e 75 178
e 47 79
e 33 181
e 66 129
e 198 248
e 24 132
e 65 133
e 170 186
e 189 199
e 1 148
e 128 189
e 40 76
e 86 192
e 12 14
e 58 130
e 3 194
e 130 235
e 163 183
e 80 148
e 66 250
e 107 251
e 162 187
e 33 73
e 79 189
e 24 253
e 65 254
e 165 192
e 184 242
e 10 89
e 51 90
e 82 194
e 183 246
e 54 132
e 40 197
e 114 146
e 155 184
e 7 20
e 26 33
e 67 71
e 31 148
e 158 189
e 70 76
e 237 253
e 116 192
e 176 243
e 33 194
e 19 30
e 5 95
e 65 146
e 51 211
e 109 189
e 95 254
e 128 202
e 7 141
e 40 89
e 26 154
e 67 192
e 144 146
e 162 200
e 181 213
e 74 87
e 19 151
e 146 192
e 5 216
e 165 205
e 13 77
e 32 90
e 137 143
e 16 82
e 40 210
e 7 33
e 67 84
e 53 149
e 125 254
e 9 79
e 28 92
e 69 93
e 88 143
e 129 144
e 148 157
e 93 221
e 5 108
e 132 149
e 32 211
e 192 200
e 51 224
e 211 213
e 2 39
e 7 154
e 26 167
e 67 205
e 20 93
e 39 106
e 70 210
e 144 159
e 23 98
e 9 200
e 41 152
e 5 229
e 32 103
e 104 208
e 16 95
e 2 160
e 76 109
e 136 160
e 81 224
e 29 34
e 120 152
e 20 214
e 139 165
e 6 50
e 23 219
e 9 92
e 69 106
e 160 224
e 8 96
e 41 44
e 132 162
e 32 224
e 25 36
e 44 49
e 30 114
e 16 216
e 35 229
e 2 52
e 29 155
e 20 106
e 106 109
e 6 171
e 111 224
e 4 98
e 23 111
e 9 213
e 64 112
e 55 63
e 41 165
e 96 101
e 127 168
e 187 219
e 25 157
e 99 106
e 85 171
e 30 235
e 118 119
e 38 96
e 117 160
e 29 47
e 120 165
e 20 227
e 106 230
e 39 240
e 6 63
e 4 219
e 59 155
e 23 232
e 50 106
e 55 184
e 96 222
e 8 109
e 13 224
e 99 227
e 173 176
e 30 127
e 16 229
e 71 165
e 24 53
e 43 66
e 29 168
e 194 235
e 235 236
e 1 69
e 106 122
e 6 184
e 92 224
e 4 111
e 64 125
e 50 227
e 105 163
e 17 50
e 3 115
e 22 128
e 168 182
e 209 220
e 25 170
e 66 171
e 11 235
e 85 184
e 30 248
e 24 174
e 57 122
e 43 187
e 98 123
e 189 241
e 101 128
e 1 190
e 142 166
e 106 243
e 18 130
e 4 232
e 64 246
e 224 235
e 17 171
e 36 184
e 163 225
e 22 249
e 3 7
e 99 240
e 33 115
e 131 192
e 24 66
e 84 117
e 115 184
e 15 246
e 101 249
e 235 249
e 1 82
e 86 126
e 105 176
e 110 254
e 58 64
e 3 128
e 209 233
e 80 82
e 66 184
e 52 249
e 126 198
e 186 249
e 24 187
e 10 23
e 189 254
e 82 128
e 1 203
e 128 244
e 161 192
e 54 66
e 40 131
e 17 184
e 3 249
e 77 198
e 176 177
e 140 254
e 33 128
e 179 182
e 5 29
e 46 67
e 65 80
e 10 144
e 82 249
e 156 198
e 216 249
e 68 85
e 128 136
e 40 252
e 26 88
e 67 126
e 72 204
e 91 254
e 158 244
e 191 192
e 89 144
e 75 246
e 33 249
e 107 198
e 234 239
e 167 249
e 5 150
e 65 201
e 170 254
e 63 128
e 202 206
e 40 144
e 26 209
e 67 247
e 246 249
e 72 96
e 58 198
e 144 201
e 56 88
e 42 190
e 9 13
e 93 155
e 5 42
e 32 145
e 63 249
e 65 93
e 137 198
e 197 212
e 238 250
e 21 23
e 7 88
e 67 139
e 53 204
e 20 27
e 39 40
e 70 144
e 111 145
e 56 209
e 130 195
e 23 32
e 9 134
e 47 160
e 88 198
e 148 212
e 41 86
e 60 99
e 46 201
e 132 204
e 65 214
e 13 24
e 192 255
e 32 37
e 123 155
e 16 29
e 35 42
e 21 144
e 7 209
e 141 209
e 53 96
e 144 214
e 185 215
e 9 255
e 97 102
e 138 140
e 9 26
e 41 207
e 74 155
e 60 220
e 32 158
e 118 161
e 30 48
e 16 150
e 71 86
e 35 163
e 90 99
e 136 215
e 7 101
e 20 40
e 6 105
e 37 209
e 4 32
e 171 209
e 23 45
e 9 147
e 50 148
e 83 96
e 148 225
e 41 99
e 113 204
e 132 217
e 13 37
e 25 91
e 30 169
e 16 42
e 2 107
e 62 158
e 7 222
e 208 212
e 15 46
e 34 96
e 20 161
e 166 215
e 18 51
e 4 153
e 37 101
e 23 166
e 78 102
e 143 231
e 36 105
e 55 118
e 41 220
e 96 156
e 127 223
e 8 43
e 160 171
e 201 209
e 25 212
e 99 161
e 30 61
e 16 163
e 71 99
e 117 215
e 222 231
e 29 102
e 48 115
e 134 155
e 1 3
e 6 118
e 4 45
e 45 46
e 231 236
e 36 226
e 196 215
e 215 228
e 22 62
e 154 218
e 173 231
e 25 104
e 66 105
e 30 182
e 131 234
e 2 120
e 29 223
e 1 124
e 106 177
e 6 239
e 18 64
e 4 166
e 23 179
e 64 180
e 105 218
e 124 231
e 17 105
e 66 226
e 99 174
e 52 62
e 112 113
e 184 218
e 203 231
e 10 65
e 29 115
e 115 118
e 1 16
e 133 172
e 152 185
e 31 124
e 17 226
e 64 72
e 105 110
e 196 228
e 3 62
e 154 231
e 66 118
e 11 182
e 126 132
e 38 56
e 24 121
e 29 236
e 170 175
e 1 137
e 128 178
e 40 65
e 100 116
e 105 231
e 17 118
e 3 183
e 77 132
e 108 236
e 61 124
e 66 239
e 181 189
e 33 62
e 24 242
e 184 231
e 244 245
e 10 78
e 18 198
e 59 236
e 174 186
e 17 239
e 3 75
e 33 183
e 107 132
e 167 183
e 198 250
e 24 134
e 65 135
e 230 239
e 128 191
e 21 65
e 40 78
e 12 245
e 86 194
e 12 16
e 232 248
e 58 132
e 3 196
e 80 150
e 162 189
e 33 75
e 74 76
e 24 255
e 165 194
e 225 245
e 32 79
e 101 209
e 40 199
e 114 148
e 155 186
e 7 22
e 174 199
e 67 73
e 158 191
e 70 78
e 89 91
e 9 68
e 88 132
e 33 196
e 5 97
e 65 148
e 49 140
e 150 192
e 7 143
e 67 194
e 144 148
e 88 253
e 14 38
e 5 218
e 165 207
e 13 79
e 32 92
e 51 105
e 137 145
e 16 84
e 35 97
e 95 148
e 40 212
e 81 213
e 136 149
e 7 35
e 139 154
e 180 192
e 9 81
e 28 94
e 148 159
e 160 213
e 46 148
e 132 151
e 32 213
e 192 202
e 51 226
e 16 205
e 90 154
e 35 218
e 2 41
e 7 156
e 81 105
e 134 197
e 20 95
e 125 148
e 4 87
e 23 100
e 9 202
e 28 215
e 143 165
e 41 154
e 5 231
e 25 146
e 164 224
e 16 97
e 2 162
e 117 149
e 29 36
e 48 49
e 20 216
e 199 218
e 6 52
e 23 221
e 157 221
e 69 108
e 96 211
e 129 159
e 160 226
e 8 98
e 99 216
e 32 226
e 25 38
e 132 164
e 30 116
e 16 218
e 35 231
e 2 54
e 84 93
e 29 157
e 103 106
e 194 224
e 20 108
e 106 111
e 6 173
e 4 100
e 23 113
e 9 215
e 64 114
e 105 152
e 69 229
e 17 39
e 124 165
e 36 52
e 55 65
e 41 167
e 96 103
e 25 159
e 99 108
e 11 224
e 44 172
e 30 237
e 145 224
e 76 124
e 117 162
e 29 49
e 20 229
e 106 232
e 161 168
e 6 65
e 4 221
e 23 234
e 64 235
e 205 211
e 17 160
e 110 122
e 96 224
e 8 111
e 154 165
e 99 229
e 118 242
e 71 167
e 57 232
e 217 221
e 24 55
e 84 106
e 29 170
e 103 119
e 175 224
e 235 238
e 1 71
e 73 176
e 6 186
e 106 124
e 64 127
e 50 229
e 105 165
e 17 52
e 3 117
e 36 65
e 22 130
e 8 232
e 108 170
e 168 184
e 209 222
e 66 173
e 24 176
e 43 189
e 10 12
e 189 243
e 101 130
e 1 192
e 161 181
e 106 245
e 54 55
e 18 132
e 4 234
e 45 235
e 119 184
e 64 248
e 205 224
e 224 237
e 17 173
e 91 122
e 3 238
e 3 9
e 94 127
e 80 192
e 154 178
e 33 117
e 98 246
e 24 68
e 65 69
e 109 112
e 1 84
e 235 251
e 73 189
e 193 254
e 86 128
e 31 192
e 58 66
e 3 130
e 77 79
e 75 235
e 130 171
e 42 58
e 209 235
e 80 84
e 66 186
e 121 122
e 186 251
e 79 125
e 24 189
e 65 190
e 10 254
e 10 25
e 1 205
e 128 246
e 40 133
e 100 184
e 86 249
e 72 85
e 3 251
e 89 254
e 223 254
e 116 128
e 61 192
e 176 179
e 33 130
e 93 144
e 179 184
e 5 31
e 65 82
e 51 147
e 109 125
e 54 189
e 128 138
e 40 254
e 155 241
e 7 77
e 174 254
e 26 90
e 12 192
e 67 128
e 130 184
e 116 249
e 190 198
e 28 136
e 61 84
e 33 251
e 148 201
e 253 254
e 5 152
e 46 190
e 65 203
e 63 130
e 123 144
e 68 208
e 16 18
e 21 133
e 7 198
e 40 146
e 67 249
e 141 198
e 34 72
e 53 85
e 70 254
e 144 203
e 204 254
e 42 192
e 116 141
e 9 15
e 176 192
e 74 144
e 60 209
e 93 157
e 146 249
e 5 44
e 32 147
e 51 160
e 137 200
e 21 254
e 95 203
e 155 254
e 7 90
e 67 141
e 20 29
e 37 198
e 171 198
e 23 34
e 9 136
e 83 85
e 88 200
e 148 214
e 234 254
e 41 88
e 5 165
e 132 206
e 13 26
e 32 39
e 104 144
e 90 209
e 16 31
e 2 96
e 7 211
e 81 160
e 26 224
e 20 150
e 39 163
e 144 216
e 185 217
e 226 255
e 23 155
e 97 104
e 138 142
e 9 28
e 102 219
e 14 106
e 96 145
e 41 209
e 8 32
e 32 160
e 30 50
e 16 152
e 35 165
e 29 91
e 134 144
e 153 157
e 20 42
e 6 107
e 111 160
e 56 224
e 4 34
e 97 225
e 23 47
e 9 149
e 215 217
e 41 101
e 27 166
e 132 219
e 25 93
e 44 106
e 30 171
e 71 209
e 90 222
e 2 109
e 29 212
e 62 160
e 48 225
e 103 161
e 20 163
e 106 166
e 6 228
e 59 91
e 4 155
e 23 168
e 97 117
e 138 155
e 124 220
e 96 158
e 8 45
e 27 58
e 25 214
e 99 163
e 118 176
e 200 215
e 30 63
e 16 165
e 203 220
e 29 104
e 139 235
e 1 5
e 6 120
e 92 160
e 4 47
e 45 48
e 36 228
e 196 217
e 55 241
e 3 51
e 215 230
e 22 64
e 25 106
e 66 107
e 11 171
e 30 184
e 24 110
e 57 58
e 29 225
e 1 126
e 106 179
e 6 241
e 166 230
e 207 231
e 18 66
e 4 168
e 45 169
e 64 182
e 105 220
e 17 107
e 25 227
e 33 51
e 52 64
e 38 166
e 112 115
e 184 220
e 10 67
e 222 246
e 1 247
e 1 18
e 78 238
e 174 175
e 45 61
e 17 228
e 3 64
e 108 117
e 195 234
e 214 247
e 66 120
e 11 184
e 198 239
e 131 249
e 24 123
e 189 190
e 1 139
e 54 231
e 73 244
e 40 67
e 105 233
e 210 249
e 17 120
e 58 121
e 3 185
e 22 198
e 61 126
e 66 241
e 33 64
e 24 244
e 184 233
e 244 247
e 10 80
e 40 188
e 31 139
e 17 241
e 237 244
e 135 196
e 88 121
e 33 185
e 52 198
e 167 185
e 19 21
e 198 252
e 5 86
e 65 137
e 170 190
e 63 64
e 156 255
e 128 193
e 21 67
e 40 80
e 67 183
e 191 249
e 3 198
e 89 201
e 149 252
e 162 191
e 107 255
e 74 78
e 5 207
e 165 196
e 32 81
e 82 198
e 40 201
e 7 24
e 67 75
e 72 153
e 130 131
e 9 70
e 14 148
e 33 198
e 47 96
e 129 135
e 220 253
e 5 99
e 132 140
e 32 202
e 65 150
e 51 215
e 7 145
e 26 158
e 67 196
e 20 84
e 144 150
e 9 191
e 14 40
e 41 143
e 74 91
e 60 156
e 5 220
e 165 209
e 32 94
e 44 148
e 63 198
e 16 86
e 35 99
e 81 215
e 7 37
e 139 156
e 6 41
e 218 220
e 97 159
e 9 83
e 129 148
e 148 161
e 160 215
e 132 153
e 32 215
e 25 27
e 51 228
e 192 204
e 30 105
e 16 207
e 90 156
e 2 43
e 62 94
e 7 158
e 134 199
e 20 97
e 6 162
e 111 215
e 4 89
e 23 102
e 9 204
e 143 167
e 36 41
e 41 156
e 127 159
e 27 221
e 206 223
e 25 148
e 30 226
e 16 99
e 29 38
e 48 51
e 20 218
e 39 231
e 6 54
e 4 210
e 78 159
e 23 223
e 92 94
e 157 223
e 110 111
e 96 213
e 160 228
e 8 100
e 27 113
e 13 215
e 99 218
e 25 40
e 118 231
e 11 105
e 30 118
e 16 220
e 131 170
e 2 56
e 29 159
e 194 226
e 1 60
e 106 113
e 6 175
e 92 215
e 4 102
e 64 116
e 105 154
e 69 231
e 17 41
e 55 67
e 96 105
e 25 161
e 66 162
e 99 110
e 30 239
e 38 100
e 98 114
e 117 164
e 29 51
e 20 231
e 106 234
e 4 223
e 23 236
e 64 237
e 205 213
e 224 226
e 17 162
e 96 226
e 8 113
e 99 231
e 173 180
e 52 119
e 217 223
e 24 57
e 1 73
e 18 242
e 133 229
e 152 242
e 105 167
e 50 231
e 17 54
e 3 119
e 22 132
e 108 172
e 209 224
e 228 237
e 66 175
e 126 189
e 24 178
e 98 127
e 43 191
e 170 232
e 10 14
e 189 245
e 101 132
e 1 194
e 87 234
e 18 134
e 45 237
e 64 250
e 17 175
e 3 240
e 77 189
e 3 11
e 33 119
e 52 132
e 5 20
e 24 70
e 65 71
e 156 189
e 68 76
e 54 178
e 114 192
e 67 117
e 3 132
e 209 237
e 47 138
e 33 240
e 80 86
e 107 189
e 121 124
e 24 191
e 65 192
e 183 184
e 128 248
e 40 135
e 45 250
e 58 189
e 3 253
e 144 192
e 176 181
e 33 132
e 179 186
e 165 251
e 198 199
e 5 33
e 46 71
e 65 84
e 10 148
e 68 89
e 95 192
e 7 79
e 67 130
e 89 148
e 171 187
e 42 73
e 47 151
e 33 253
e 74 254
e 88 189
e 148 203
e 234 243
e 5 154
e 46 192
e 65 205
e 13 15
e 192 246
e 63 132
e 16 20
e 7 200
e 40 148
e 67 251
e 125 192
e 144 205
e 37 79
e 83 195
e 9 17
e 28 30
e 146 251
e 32 149
e 104 254
e 137 202
e 30 39
e 197 216
e 238 254
e 7 92
e 20 31
e 4 23
e 171 200
e 23 36
e 9 138
e 83 87
e 148 216
e 41 90
e 5 167
e 132 208
e 13 28
e 25 82
e 16 33
e 2 98
e 7 213
e 134 254
e 20 152
e 39 165
e 23 157
e 97 106
e 138 144
e 96 147
e 41 211
e 160 162
e 60 224
e 8 34
e 25 203
e 99 152
e 32 162
e 118 165
e 178 216
e 30 52
e 16 154
e 71 90
e 35 167
e 29 93
e 48 106
e 134 146
e 139 224
e 20 44
e 6 109
e 4 36
e 23 49
e 69 165
e 55 230
e 215 219
e 41 103
e 132 221
e 25 95
e 11 160
e 44 108
e 30 173
e 71 211
e 90 224
e 145 160
e 164 173
e 2 111
e 29 214
e 20 165
e 106 168
e 6 230
e 4 157
e 78 106
e 23 170
e 64 171
e 105 209
e 138 157
e 17 96
e 96 160
e 41 224
e 8 47
e 25 216
e 99 165
e 200 217
e 52 53
e 38 155
e 71 103
e 76 181
e 29 106
e 120 224
e 1 7
e 6 122
e 152 176
e 50 165
e 3 53
e 215 232
e 22 66
e 8 168
e 66 109
e 30 186
e 71 224
e 38 47
e 24 112
e 29 227
e 103 176
e 1 128
e 106 181
e 6 243
e 188 220
e 59 106
e 4 170
e 64 184
e 105 222
e 17 109
e 3 174
e 33 53
e 52 66
e 112 117
e 24 233
e 184 222
e 203 235
e 10 69
e 115 122
e 15 184
e 1 249
e 1 20
e 18 189
e 31 128
e 17 230
e 36 243
e 110 192
e 177 182
e 3 66
e 75 171
e 94 184
e 80 249
e 33 174
e 66 122
e 107 123
e 167 174
e 186 187
e 198 241
e 24 125
e 65 126
e 170 179
e 115 243
e 189 192
e 1 141
e 128 182
e 40 69
e 31 249
e 210 251
e 58 123
e 3 187
e 89 190
e 168 254
e 61 128
e 66 243
e 33 66
e 19 131
e 79 182
e 24 246
e 184 235
e 244 249
e 10 82
e 51 83
e 142 238
e 95 126
e 40 190
e 114 139
e 7 13
e 119 254
e 174 190
e 12 128
e 72 142
e 158 182
e 75 184
e 61 249
e 135 198
e 195 249
e 33 187
e 93 201
e 179 241
e 19 23
e 198 254
e 5 88
e 239 255
e 65 139
e 63 66
e 68 144
e 54 246
e 128 195
e 7 134
e 40 82
e 67 185
e 12 249
e 81 83
e 86 198
e 232 252
e 125 126
e 149 254
e 190 255
e 42 128
e 162 193
e 14 29
e 19 144
e 5 209
e 165 198
e 225 249
e 32 83
e 63 187
e 51 96
e 40 203
e 7 26
e 67 77
e 70 82
e 42 249
e 116 198
e 9 72
e 176 249
e 148 150
e 179 254
e 5 101
e 46 139
e 32 204
e 132 142
e 192 193
e 49 144
e 35 209
e 2 32
e 7 147
e 81 96
e 26 160
e 67 198
e 141 147
e 213 252
e 20 86
e 39 99
e 144 152
e 23 91
e 9 193
e 41 145
e 146 198
e 5 222
e 165 211
e 32 96
e 164 215
e 16 88
e 250 255
e 117 140
e 136 153
e 20 207
e 199 209
e 6 43
e 218 222
e 56 160
e 97 161
e 9 85
e 69 99
e 129 150
e 160 217
e 132 155
e 32 217
e 25 29
e 30 107
e 16 209
e 150 209
e 2 45
e 29 148
e 62 96
e 194 215
e 20 99
e 6 164
e 92 204
e 4 91
e 23 104
e 9 206
e 124 156
e 41 158
e 25 150
e 145 215
e 164 228
e 62 217
e 103 218
e 29 40
e 15 105
e 48 53
e 20 220
e 106 223
e 139 171
e 180 209
e 6 56
e 4 212
e 59 148
e 23 225
e 92 96
e 50 99
e 96 215
e 160 230
e 8 102
e 154 156
e 99 220
e 25 42
e 11 107
e 30 120
e 16 222
e 76 236
e 24 46
e 43 59
e 29 161
e 103 110
e 115 164
e 175 215
e 1 62
e 106 115
e 6 177
e 18 231
e 152 231
e 4 104
e 45 105
e 64 118
e 105 156
e 17 43
e 110 234
e 8 223
e 127 174
e 168 175
e 25 163
e 30 241
e 38 102
e 24 167
e 103 231
e 189 234
e 142 159
e 1 183
e 106 236
e 18 123
e 4 225
e 78 174
e 205 215
e 64 239
e 224 228
e 31 62
e 17 164
e 110 126
e 96 228
e 182 231
e 75 105
e 94 118
e 99 233
e 38 223
e 24 59
e 10 124
e 43 72
e 15 239
e 235 242
e 1 75
e 133 231
e 105 169
e 17 56
e 3 121
e 22 134
e 168 188
e 209 226
e 61 62
e 66 177
e 52 242
e 167 229
e 19 65
e 84 231
e 170 234
e 10 16
e 189 247
e 1 196
e 128 237
e 40 124
e 205 228
e 64 252
e 17 177
e 72 76
e 3 242
e 163 231
e 182 244
e 116 119
e 80 196
e 33 121
e 5 22
e 65 73
e 82 242
e 49 65
e 68 78
e 109 116
e 128 129
e 40 245
e 235 255
e 67 119
e 3 134
e 42 62
e 33 242
e 5 143
e 65 194
e 109 237
e 128 250
e 21 124
e 40 137
e 67 240
e 141 189
e 72 89
e 3 255
e 144 194
e 56 81
e 116 132
e 61 196
e 176 183
e 33 134
e 93 148
e 165 253
e 5 35
e 32 138
e 65 86
e 238 243
e 49 78
e 21 245
e 241 248
e 7 81
e 67 132
e 171 189
e 23 25
e 9 127
e 28 140
e 88 191
e 33 255
e 129 192
e 148 205
e 41 79
e 60 92
e 5 156
e 132 197
e 65 207
e 13 17
e 192 248
e 123 148
e 68 212
e 16 22
e 7 202
e 81 151
e 26 215
e 39 154
e 144 207
e 185 208
e 9 248
e 9 19
e 74 148
e 32 151
e 63 255
e 159 192
e 30 41
e 16 143
e 71 79
e 90 92
e 95 207
e 7 94
e 134 135
e 34 197
e 53 210
e 20 33
e 6 98
e 39 46
e 56 215
e 4 25
e 23 38
e 9 140
e 83 89
e 148 218
e 41 92
e 60 105
e 13 30
e 25 84
e 30 162
e 104 148
e 16 35
e 2 100
e 7 215
e 122 165
e 20 154
e 39 167
e 4 146
e 78 95
e 23 159
e 138 146
e 143 224
e 96 149
e 41 213
e 160 164
e 201 202
e 8 36
e 25 205
e 99 154
e 118 167
e 11 41
e 30 54
e 16 156
e 90 105
e 117 208
e 29 95
e 134 148
e 139 226
e 6 111
e 37 215
e 152 165
e 4 38
e 97 229
e 14 231
e 110 168
e 196 208
e 215 221
e 22 55
e 173 224
e 25 97
e 66 98
e 30 175
e 90 226
e 2 113
e 29 216
e 103 165
e 1 117
e 20 167
e 106 170
e 6 232
e 4 159
e 23 172
e 64 173
e 105 211
e 124 224
e 17 98
e 96 162
e 25 218
e 99 167
e 85 232
e 52 55
e 184 211
e 43 235
e 203 224
e 29 108
e 161 227
e 1 9
e 18 178
e 133 165
e 45 52
e 31 117
e 17 219
e 64 65
e 196 221
e 3 55
e 154 224
e 173 237
e 66 111
e 52 176
e 85 124
e 38 49
e 24 114
e 84 165
e 29 229
e 1 130
e 106 183
e 6 245
e 147 184
e 100 109
e 45 173
e 64 186
e 105 224
e 17 111
e 3 176
e 163 165
e 22 189
e 121 168
e 66 232
e 85 245
e 33 55
e 200 232
e 112 119
e 24 235
e 98 184
e 184 224
e 10 71
e 101 189
e 1 251
e 114 128
e 174 179
e 119 243
e 17 232
e 36 245
e 177 184
e 3 68
e 88 112
e 33 176
e 167 176
e 198 243
e 24 127
e 65 128
e 10 192
e 156 246
e 189 194
e 109 171
e 128 184
e 40 71
e 100 122
e 232 241
e 3 189
e 89 192
e 162 182
e 33 68
e 79 184
e 24 248
e 65 249
e 165 187
e 10 84
e 82 189
e 68 254
e 202 254
e 95 128
e 40 192
e 155 179
e 7 15
e 174 192
e 26 28
e 72 144
e 158 184
e 70 71
e 61 251
e 33 189
e 19 254
e 179 243
e 19 25
e 5 90
e 46 128
e 65 141
e 109 184
e 128 197
e 169 198
e 7 136
e 81 85
e 67 187
e 232 254
e 125 128
e 70 192
e 89 205
e 102 144
e 14 31
e 74 82
e 146 187
e 5 211
e 46 249
e 165 200
e 32 85
e 63 189
e 137 138
e 49 254
e 16 77
e 183 254
e 21 192
e 40 205
e 136 142
e 7 28
e 53 144
e 139 147
e 39 209
e 125 249
e 42 251
e 9 74
e 69 88
e 148 152
e 160 206
e 5 103
e 132 144
e 32 206
e 192 195
e 16 198
e 150 198
e 2 34
e 7 149
e 67 200
e 213 254
e 254 255
e 20 88
e 39 101
e 23 93
e 9 195
e 83 144
e 69 209
e 143 158
e 41 147
e 60 160
e 5 224
e 206 214
e 25 139
e 16 90
e 34 144
e 20 209
e 139 160
e 39 222
e 199 211
e 6 45
e 23 214
e 138 201
e 50 88
e 69 101
e 14 165
e 96 204
e 129 152
e 160 219
e 8 91
e 113 144
e 99 209
e 32 219
e 25 31
e 132 157
e 11 96
e 30 109
e 16 211
e 90 160
e 35 224
e 2 47
e 84 86
e 29 150
e 153 216
e 20 101
e 6 166
e 4 93
e 23 106
e 9 208
e 50 209
e 64 107
e 105 145
e 17 32
e 36 45
e 41 160
e 25 152
e 99 101
e 44 165
e 30 230
e 29 42
e 20 222
e 106 225
e 6 58
e 4 214
e 23 227
e 64 228
e 97 176
e 17 153
e 110 115
e 55 179
e 96 217
e 182 220
e 8 104
e 154 158
e 99 222
e 30 122
e 71 160
e 112 161
e 24 48
e 84 99
e 103 112
e 1 64
e 73 169
e 6 179
e 106 117
e 4 106
e 64 120
e 105 158
e 91 223
e 124 171
e 17 45
e 3 110
e 36 58
e 168 177
e 209 215
e 30 243
e 186 231
e 98 118
e 189 236
e 101 123
e 1 185
e 106 238
e 4 227
e 100 164
e 119 177
e 64 241
e 205 217
e 224 230
e 31 64
e 17 166
e 91 115
e 3 231
e 77 180
e 75 107
e 140 236
e 33 110
e 57 238
e 24 61
e 115 179
e 15 241
e 156 180
e 1 77
e 58 59
e 3 123
e 42 51
e 209 228
e 61 64
e 33 231
e 66 179
e 52 244
e 167 231
e 19 67
e 79 118
e 24 182
e 84 233
e 10 18
e 189 249
e 82 123
e 142 174
e 1 198
e 128 239
e 40 126
e 12 64
e 72 78
e 3 244
e 223 247
e 61 185
e 80 198
e 140 249
e 33 123
e 79 239
e 5 24
e 46 62
e 65 75
e 49 67
e 68 80
e 54 182
e 128 131
e 40 247
e 7 70
e 67 121
e 31 198
e 190 191
e 42 64
e 33 244
e 148 194
e 19 80
e 5 145
e 65 196
e 170 249
e 211 250
e 128 252
e 40 139
e 67 242
e 34 65
e 144 196
e 37 70
e 61 198
e 176 185
e 146 242
e 5 37
e 32 140
e 114 209
e 7 83
e 26 96
e 67 134
e 20 22
e 171 191
e 23 27
e 9 129
e 129 194
e 148 207
e 234 247
e 41 81
e 5 158
e 132 199
e 13 19
e 192 250
e 16 24
e 2 89
e 35 37
e 7 204
e 141 204
e 20 143
e 144 209
e 23 148
e 9 250
e 56 96
e 9 21
e 229 253
e 14 99
e 41 202
e 60 215
e 8 25
e 32 153
e 30 43
e 197 220
e 90 94
e 35 158
e 29 84
e 139 215
e 20 35
e 6 100
e 4 27
e 23 40
e 9 142
e 50 143
e 83 91
e 41 94
e 27 159
e 132 212
e 25 86
e 44 99
e 30 164
e 145 151
e 90 215
e 2 102
e 7 217
e 15 41
e 20 156
e 106 159
e 6 221
e 4 148
e 23 161
e 138 148
e 36 100
e 96 151
e 41 215
e 127 218
e 160 166
e 8 38
e 201 204
e 27 51
e 13 153
e 25 207
e 99 156
e 200 208
e 11 43
e 219 221
e 30 56
e 16 158
e 71 94
e 76 172
e 203 213
e 29 97
e 120 215
e 6 113
e 78 218
e 4 40
e 97 231
e 36 221
e 215 223
e 113 212
e 25 99
e 66 100
e 30 177
e 71 215
e 24 103
e 29 218
e 103 167
e 48 231
e 1 119
e 106 172
e 6 234
e 207 224
e 18 59
e 4 161
e 78 110
e 64 175
e 105 213
e 17 100
e 96 164
e 127 231
e 25 220
e 66 221
e 99 169
e 184 213
e 43 237
e 203 226
e 10 60
e 15 175
e 101 178
e 1 240
e 1 11
e 78 231
e 17 221
e 3 57
e 108 110
e 195 227
e 66 113
e 107 114
e 126 127
e 198 232
e 24 116
e 29 231
e 1 132
e 128 173
e 147 186
e 188 224
e 40 60
e 64 188
e 105 226
e 210 242
e 17 113
e 3 178
e 163 167
e 108 231
e 80 132
e 66 234
e 181 184
e 33 57
e 19 122
e 24 237
e 184 226
e 43 250
e 10 73
e 82 178
e 1 253
e 54 116
e 40 181
e 193 194
e 31 132
e 17 234
e 58 235
e 135 189
e 47 76
e 33 178
e 107 127
e 93 192
e 198 245
e 5 79
e 65 130
e 170 183
e 109 173
e 128 186
e 21 60
e 40 73
e 26 138
e 67 176
e 86 189
e 100 124
e 58 127
e 3 191
e 130 232
e 149 245
e 61 132
e 162 184
e 14 20
e 19 135
e 5 200
e 24 250
e 65 251
e 165 189
e 225 240
e 32 74
e 244 253
e 123 192
e 21 181
e 40 194
e 7 17
e 26 30
e 12 132
e 67 68
e 144 251
e 116 189
e 61 253
e 9 63
e 176 240
e 33 191
e 74 192
e 93 205
e 5 92
e 132 133
e 32 195
e 65 143
e 68 148
e 109 186
e 7 138
e 81 87
e 67 189
e 153 192
e 53 254
e 70 194
e 9 184
e 42 132
e 14 33
e 41 136
e 74 84
e 146 189
e 5 213
e 165 202
e 32 87
e 63 191
e 104 192
e 16 79
e 21 194
e 136 144
e 7 30
e 139 149
e 6 34
e 42 253
e 83 254
e 97 152
e 9 76
e 14 154
e 148 154
e 160 208
e 132 146
e 32 208
e 118 211
e 159 249
e 192 197
e 30 98
e 16 200
e 2 36
e 62 87
e 7 151
e 134 192
e 34 254
e 20 90
e 39 103
e 4 82
e 23 95
e 9 197
e 143 160
e 127 152
e 113 254
e 247 254
e 25 141
e 30 219
e 104 205
e 16 92
e 76 106
e 117 144
e 29 31
e 20 211
e 139 162
e 6 47
e 4 203
e 97 165
e 138 203
e 96 206
e 160 221
e 8 93
e 27 106
e 99 211
e 25 33
e 118 224
e 11 98
e 30 111
e 16 213
e 131 163
e 2 49
e 43 50
e 29 152
e 48 165
e 194 219
e 1 53
e 20 103
e 87 93
e 6 168
e 4 95
e 23 108
e 64 109
e 124 160
e 69 224
e 17 34
e 96 98
e 127 165
e 187 216
e 25 154
e 66 155
e 99 103
e 30 232
e 57 106
e 43 171
e 76 119
e 84 209
e 29 44
e 20 224
e 106 227
e 18 114
e 4 216
e 78 165
e 23 229
e 64 230
e 119 166
e 205 206
e 17 155
e 96 219
e 8 106
e 154 160
e 99 224
e 24 50
e 43 63
e 29 165
e 1 66
e 87 106
e 106 119
e 6 181
e 18 235
e 45 109
e 64 122
e 50 224
e 105 160
e 17 47
e 110 238
e 3 112
e 108 165
e 94 230
e 209 217
e 66 168
e 85 181
e 38 106
e 24 171
e 43 184
e 189 238
e 101 125
e 1 187
e 161 176
e 106 240
e 59 165
e 64 243
e 224 232
e 31 66
e 17 168
e 3 233
e 22 246
e 3 4
e 33 112
e 112 176
e 24 63
e 10 128
e 115 181
e 68 69
e 235 246
e 73 184
e 174 236
e 193 249
e 177 241
e 58 61
e 3 125
e 89 128
e 168 192
e 209 230
e 61 66
e 33 233
e 126 195
e 24 184
e 98 133
e 10 249
e 189 251
e 1 200
e 128 241
e 54 63
e 40 128
e 100 179
e 12 66
e 53 67
e 72 80
e 3 246
e 89 249
e 144 185
e 204 236
e 223 249
e 42 174
e 33 125
e 165 244
e 98 254
e 5 26
e 46 64
e 65 77
e 51 142
e 21 236
e 54 184
e 40 249
e 7 72
e 174 249
e 67 123
e 31 200
e 177 254
e 70 128
e 75 243
e 116 244
e 42 66
e 47 144
e 33 246
e 74 247
e 148 196
e 234 236
e 19 82
e 5 147
e 65 198
e 192 239
e 63 125
e 183 190
e 128 254
e 21 128
e 7 193
e 40 141
e 67 244
e 34 67
e 70 249
e 144 198
e 204 249
e 28 252
e 9 10
e 5 39
e 46 77
e 32 142
e 197 209
e 16 134
e 49 82
e 21 249
e 95 198
e 155 249
e 7 85
e 67 136
e 158 254
e 20 24
e 171 193
e 23 29
e 9 131
e 28 144
e 14 209
e 148 209
e 234 249
e 41 83
e 60 96
e 5 160
e 46 198
e 132 201
e 13 21
e 25 75
e 151 214
e 192 252
e 16 26
e 150 255
e 2 91
e 7 206
e 20 145
e 125 198
e 226 250
e 78 86
e 23 150
e 9 252
e 97 99
e 143 215
e 96 140
e 41 204
e 8 27
e 27 40
e 99 145
e 32 155
e 44 209
e 11 32
e 178 209
e 30 45
e 16 147
e 71 83
e 35 160
e 90 96
e 29 86
e 48 99
e 20 37
e 6 102
e 152 156
e 4 29
e 97 220
e 23 42
e 9 144
e 196 199
e 8 148
e 41 96
e 173 215
e 25 88
e 30 166
e 2 104
e 43 105
e 29 207
e 62 155
e 208 209
e 20 158
e 106 161
e 6 223
e 4 150
e 78 99
e 23 163
e 64 164
e 97 112
e 105 202
e 124 215
e 17 89
e 36 102
e 96 153
e 41 217
e 8 40
e 25 209
e 99 158
e 159 209
e 219 223
e 30 58
e 38 148
e 71 96
e 203 215
e 29 99
e 73 105
e 6 115
e 133 156
e 196 212
e 3 46
e 215 225
e 154 215
e 66 102
e 30 179
e 38 40
e 24 105
e 29 220
e 1 121
e 106 174
e 6 236
e 188 213
e 59 99
e 4 163
e 64 177
e 105 215
e 210 231
e 17 102
e 3 167
e 168 234
e 25 222
e 66 223
e 80 121
e 140 172
e 33 46
e 200 223
e 24 226
e 184 215
e 10 62
e 101 180
e 1 242
e 161 231
e 1 13
e 54 105
e 59 220
e 12 108
e 17 223
e 77 237
e 110 185
e 3 59
e 33 167
e 66 115
e 112 231
e 198 234
e 24 118
e 65 119
e 10 183
e 170 172
e 1 134
e 87 174
e 128 175
e 40 62
e 207 239
e 119 126
e 191 231
e 58 116
e 3 180
e 22 193
e 66 236
e 33 59
e 126 250
e 79 175
e 24 239
e 43 252
e 225 229
e 10 75
e 142 231
e 1 255
e 54 118
e 95 119
e 40 183
e 114 132
e 174 183
e 119 247
e 193 196
e 17 236
e 58 237
e 116 178
e 28 65
e 33 180
e 198 247
e 5 81
e 65 132
e 128 188
e 169 189
e 40 75
e 67 178
e 12 242
e 31 255
e 232 245
e 162 186
e 14 22
e 146 178
e 5 202
e 165 191
e 65 253
e 32 76
e 51 89
e 183 245
e 95 132
e 40 196
e 81 197
e 7 19
e 26 32
e 67 70
e 72 148
e 58 250
e 9 65
e 176 242
e 129 130
e 5 94
e 46 132
e 32 197
e 132 135
e 49 137
e 109 188
e 150 189
e 2 25
e 169 202
e 7 140
e 81 89
e 67 191
e 213 245
e 20 79
e 125 132
e 144 145
e 23 84
e 9 186
e 102 148
e 41 138
e 5 215
e 165 204
e 13 76
e 32 89
e 16 81
e 21 196
e 34 135
e 20 200
e 53 148
e 125 253
e 180 189
e 6 36
e 23 205
e 138 192
e 9 78
e 50 79
e 69 92
e 160 210
e 132 148
e 32 210
e 192 199
e 30 100
e 16 202
e 35 215
e 76 216
e 2 38
e 20 92
e 6 157
e 39 105
e 4 84
e 23 97
e 9 199
e 69 213
e 41 151
e 206 218
e 25 143
e 30 221
e 16 94
e 76 108
e 117 146
e 136 159
e 29 33
e 122 224
e 20 213
e 106 216
e 6 49
e 4 205
e 23 218
e 97 167
e 69 105
e 96 208
e 160 223
e 8 95
e 113 148
e 99 213
e 25 35
e 118 226
e 30 113
e 16 215
e 131 165
e 24 39
e 29 154
e 1 55
e 87 95
e 106 108
e 6 170
e 152 224
e 4 97
e 64 111
e 50 213
e 105 149
e 17 36
e 27 229
e 25 156
e 66 157
e 99 105
e 30 234
e 15 111
e 101 114
e 1 176
e 161 165
e 106 229
e 4 218
e 205 208
e 64 232
e 31 55
e 17 157
e 91 106
e 110 119
e 55 183
e 96 221
e 182 224
e 75 98
e 8 108
e 99 226
e 38 216
e 112 165
e 98 230
e 217 218
e 24 52
e 10 117
e 43 65
e 15 232
e 216 222
e 1 68
e 133 224
e 45 111
e 64 124
e 105 162
e 91 227
e 17 49
e 3 114
e 22 127
e 75 219
e 168 181
e 209 219
e 66 170
e 126 184
e 19 58
e 24 173
e 98 122
e 84 224
e 189 240
e 82 114
e 142 165
e 1 189
e 128 230
e 147 243
e 40 117
e 205 221
e 64 245
e 17 170
e 3 235
e 77 184
e 163 224
e 80 189
e 33 114
e 93 128
e 5 15
e 65 66
e 156 184
e 68 71
e 174 238
e 67 112
e 31 189
e 177 243
e 58 63
e 3 127
e 70 117
e 149 181
e 42 55
e 209 232
e 33 235
e 107 184
e 5 136
e 24 186
e 123 128
e 68 192
e 128 243
e 21 117
e 40 130
e 67 233
e 100 181
e 86 246
e 58 184
e 3 248
e 144 187
e 116 125
e 61 189
e 47 254
e 181 254
e 33 127
e 74 128
e 19 192
e 179 181
e 165 246
e 5 28
e 46 66
e 32 131
e 65 79
e 51 144
e 137 184
e 123 249
e 197 198
e 68 84
e 109 122
e 40 251
e 7 74
e 67 125
e 12 189
e 171 182
e 9 120
e 47 146
e 33 248
e 74 249
e 88 184
e 148 198
e 41 72
e 234 238
e 60 85
e 5 149
e 65 200
e 192 241
e 211 254
e 63 127
e 104 128
e 49 192
e 183 192
e 62 131
e 7 195
e 67 246
e 153 249
e 125 187
e 70 251
e 144 200
e 245 252
e 9 241
e 42 189
e 28 254
e 9 12
e 116 138
e 162 254
e 27 29
e 32 144
e 104 249
e 178 198
e 30 34
e 16 136
e 238 249
e 136 201
e 241 254
e 7 87
e 53 203
e 180 244
e 72 216
e 20 26
e 111 144
e 4 18
e 23 31
e 9 133
e 129 198
e 148 211
e 234 251
e 41 85
e 132 203
e 13 23
e 25 77
e 192 254
e 30 155
e 90 206
e 16 28
e 2 93
e 62 144
e 7 208
e 48 209
e 134 249
e 39 160
e 92 252
e 226 252
e 4 139
e 23 152
e 9 254
e 97 101
e 138 139
e 96 142
e 41 206
e 60 219
e 8 29
e 13 144
e 25 198
e 99 147
e 118 160
e 159 198
e 11 34
e 30 47
e 29 88
e 6 104
e 92 144
e 78 209
e 152 158
e 4 31
e 23 44
e 69 160
e 14 224
e 27 163
e 25 90
e 66 91
e 11 155
e 30 168
e 2 106
e 43 107
e 29 209
e 103 158
e 122 171
e 208 211
e 20 160
e 106 163
e 6 225
e 18 50
e 4 152
e 59 88
e 23 165
e 64 166
e 105 204
e 124 217
e 17 91
e 143 230
e 55 117
e 41 219
e 96 155
e 108 209
e 8 42
e 25 211
e 99 160
e 44 224
e 184 204
e 29 101
e 1 2
e 59 209
e 78 222
e 17 212
e 50 160
e 110 174
e 3 48
e 154 217
e 214 231
e 66 104
e 85 117
e 131 233
e 24 107
e 29 222
e 1 123
e 106 176
e 6 238
e 188 215
e 100 102
e 64 179
e 105 217
e 191 220
e 17 104
e 58 105
e 3 169
e 22 182
e 127 235
e 66 225
e 33 48
e 200 225
e 52 61
e 24 228
e 184 217
e 10 64
e 115 117
e 1 244
e 18 184
e 45 58
e 17 225
e 3 61
e 176 218
e 195 231
e 47 67
e 33 169
e 88 105
e 107 118
e 198 236
e 24 120
e 65 121
e 170 174
e 1 136
e 128 177
e 73 241
e 40 64
e 100 115
e 12 231
e 3 182
e 168 249
e 121 174
e 66 238
e 107 239
e 181 188
e 33 61
e 79 177
e 24 241
e 65 242
e 165 180
e 225 231
e 10 77
e 7 8
e 119 249
e 174 185
e 42 231
e 116 180
e 176 231
e 28 67
e 33 182
e 198 249
e 5 83
e 65 134
e 10 198
e 156 252
e 128 190
e 21 64
e 7 129
e 40 77
e 26 142
e 67 180
e 89 198
e 149 249
e 28 188
e 162 188
e 14 24
e 148 253
e 74 75
e 5 204
e 165 193
e 65 255
e 13 65
e 32 78
e 49 247
e 16 70
e 183 247
e 40 198
e 7 21
e 158 190
e 58 252
e 144 255
e 9 67
e 69 81
e 129 132
e 160 199
e 93 209
e 5 96
e 132 137
e 32 199
e 51 212
e 16 191
e 150 191
e 95 255
e 2 27
e 7 142
e 81 91
e 34 245
e 67 193
e 172 209
e 20 81
e 70 198
e 23 86
e 9 188
e 143 151
e 41 140
e 5 217
e 206 207
e 13 78
e 32 91
e 123 209
e 16 83
e 2 148
e 35 96
e 62 199
e 136 148
e 20 202
e 39 215
e 6 38
e 9 80
e 50 81
e 14 158
e 96 197
e 160 212
e 8 84
e 99 202
e 32 212
e 118 215
e 132 150
e 30 102
e 16 204
e 2 40
e 29 143
e 134 196
e 153 209
e 194 210
e 20 94
e 6 159
e 4 86
e 23 99
e 9 201
e 64 100
e 105 138
e 69 215
e 17 25
e 36 38
e 41 153
e 25 145
e 30 223
e 145 210
e 117 148
e 29 35
e 20 215
e 106 218
e 6 51
e 4 207
e 18 105
e 23 220
e 91 95
e 96 210
e 182 213
e 8 97
e 99 215
e 30 115
e 76 231
e 24 41
e 43 54
e 29 156
e 84 92
e 103 105
e 194 223
e 1 57
e 106 110
e 6 172
e 4 99
e 64 113
e 50 215
e 105 151
e 17 38
e 3 103
e 36 51
e 27 231
e 66 159
e 85 172
e 30 236
e 186 224
e 24 162
e 43 175
e 189 229
e 101 116
e 1 178
e 142 154
e 106 231
e 161 167
e 4 220
e 64 234
e 12 44
e 17 159
e 77 173
e 110 121
e 140 229
e 33 103
e 52 116
e 112 167
e 57 231
e 24 54
e 84 105
e 216 224
e 235 237
e 1 70
e 54 162
e 3 116
e 42 44
e 209 221
e 33 224
e 66 172
e 107 173
e 167 224
e 79 111
e 24 175
e 98 124
e 10 11
e 189 242
e 142 167
e 1 191
e 87 231
e 128 232
e 40 119
e 86 235
e 119 183
e 17 172
e 3 237
e 163 226
e 33 116
e 5 17
e 46 55
e 65 68
e 10 132
e 63 224
e 109 111
e 7 63
e 67 114
e 86 127
e 31 191
e 72 192
e 58 65
e 89 132
e 130 170
e 33 237
e 107 186
e 5 138
e 65 189
e 211 243
e 49 181
e 123 130
e 128 245
e 40 132
e 67 235
e 34 58
e 58 186
e 144 189
e 14 79
e 19 194
e 179 183
e 165 248
e 5 30
e 46 68
e 32 133
e 123 251
e 109 124
e 95 189
e 40 253
e 114 202
e 7 76
e 26 89
e 67 127
e 53 192
e 70 132
e 171 184
e 9 122
e 14 200
e 47 148
e 148 200
e 41 74
e 5 151
e 46 189
e 32 254
e 65 202
e 132 192
e 44 79
e 192 243
e 16 17
e 150 246
e 21 132
e 7 197
e 67 248
e 20 136
e 125 189
e 144 202
e 37 76
e 245 254
e 23 141
e 9 243
e 83 192
e 9 14
e 41 195
e 146 248
e 27 31
e 32 146
e 30 36
e 16 138
e 197 213
e 62 254
e 136 203
e 29 77
e 48 90
e 34 192
e 180 246
e 20 28
e 6 93
e 37 197
e 39 41
e 4 20
e 138 249
e 23 33
e 9 135
e 83 84
e 148 213
e 41 87
e 13 254
e 132 205
e 25 79
e 85 93
e 30 157
e 71 195
e 104 143
e 16 30
e 2 95
e 7 210
e 122 160
e 20 149
e 106 152
e 92 254
e 226 254
e 4 141
e 78 90
e 23 154
e 97 103
e 138 141
e 55 106
e 41 208
e 96 144
e 8 31
e 25 200
e 99 149
e 44 213
e 200 201
e 30 49
e 16 151
e 71 87
e 76 165
e 29 90
e 15 155
e 134 143
e 6 106
e 18 160
e 152 160
e 4 33
e 97 224
e 69 162
e 215 216
e 8 152
e 27 165
e 25 92
e 66 93
e 85 106
e 30 170
e 29 211
e 103 160
e 48 224
e 122 173
e 15 47
e 1 112
e 106 165
e 6 227
e 4 154
e 78 103
e 64 168
e 105 206
e 17 93
e 36 106
e 22 171
e 96 157
e 127 224
e 8 44
e 25 213
e 66 214
e 99 162
e 200 214
e 57 165
e 2 229
e 184 206
e 203 219
e 10 53
e 1 233
e 120 221
e 1 4
e 54 96
e 78 224
e 45 47
e 3 50
e 22 63
e 8 165
e 154 219
e 66 106
e 24 109
e 84 160
e 29 224
e 115 227
e 1 125
e 87 165
e 128 166
e 147 179
e 40 53
e 207 230
e 64 181
e 105 219
e 17 106
e 3 171
e 22 184
e 108 224
e 66 227
e 85 240
e 33 50
e 38 165
e 24 230
e 98 179
e 184 219
e 10 66
e 82 171
e 101 184
e 1 246
e 40 174
e 59 224
e 114 123
e 17 227
e 3 63
e 47 69
e 33 171
e 214 246
e 52 184
e 198 238
e 5 72
e 65 123
e 68 128
e 128 179
e 21 53
e 147 192
e 40 66
e 67 169
e 100 117
e 86 182
e 232 236
e 58 120
e 3 184
e 130 225
e 61 125
e 33 63
e 126 254
e 19 128
e 24 243
e 65 244
e 165 182
e 32 67
e 63 171
e 51 80
e 82 184
e 68 249
e 202 249
e 40 187
e 7 10
e 144 244
e 77 254
e 9 56
e 88 120
e 33 184
e 19 249
e 93 198
e 198 251
e 5 85
e 32 188
e 65 136
e 156 254
e 49 128
e 21 66
e 62 67
e 7 131
e 26 144
e 67 182
e 153 185
e 172 198
e 232 249
e 190 252
e 9 177
e 107 254
e 14 26
e 148 255
e 74 77
e 5 206
e 13 67
e 32 80
e 63 184
e 104 185
e 49 249
e 123 198
e 16 72
e 183 249
e 95 136
e 7 252
e 136 137
e 7 23
e 139 142
e 6 27
e 56 144
e 9 69
e 129 134
e 74 198
e 160 201
e 220 252
e 132 139
e 137 254
e 30 91
e 16 193
e 2 29
e 7 144
e 153 198
e 213 249
e 20 83
e 39 96
e 92 188
e 4 75
e 23 88
e 9 190
e 28 203
e 41 142
e 5 219
e 206 209
e 25 134
e 104 198
e 250 252
e 16 85
e 2 150
e 76 99
e 136 150
e 122 215
e 20 204
e 139 155
e 39 217
e 199 206
e 6 40
e 37 144
e 23 209
e 157 209
e 69 96
e 14 160
e 96 199
e 160 214
e 8 86
e 27 99
e 99 204
e 25 26
e 159 255
e 30 104
e 16 206
e 76 220
e 2 42
e 29 145
e 134 198
e 20 96
e 6 161
e 152 215
e 4 88
e 23 101
e 64 102
e 50 204
e 105 140
e 17 27
e 143 166
e 36 40
e 22 105
e 41 155
e 187 209
e 25 147
e 44 160
e 30 225
e 57 99
e 103 215
e 29 37
e 15 102
e 20 217
e 106 220
e 4 209
e 64 223
e 138 209
e 17 148
e 50 96
e 96 212
e 182 215
e 8 99
e 99 217
e 11 104
e 52 105
e 76 233
e 24 43
e 84 94
e 29 158
e 1 59
e 87 99
e 106 112
e 6 174
e 64 115
e 17 40
e 110 231
e 3 105
e 22 118
e 168 172
e 209 210
e 66 161
e 126 175
e 38 99
e 189 231
e 82 105
e 1 180
e 106 233
e 18 120
e 59 158
e 205 212
e 64 236
e 224 225
e 17 161
e 3 226
e 163 215
e 22 239
e 140 231
e 33 105
e 52 118
e 24 56
e 10 121
e 235 239
e 3 118
e 89 121
e 75 223
e 130 159
e 42 46
e 168 185
e 209 223
e 33 226
e 66 174
e 65 178
e 170 231
e 10 13
e 63 105
e 189 244
e 1 193
e 128 234
e 40 121
e 53 60
e 72 73
e 3 239
e 204 229
e 121 231
e 181 245
e 33 118
e 93 132
e 79 234
e 165 237
e 5 19
e 46 57
e 65 70
e 82 239
e 156 188
e 40 242
e 7 65
e 67 116
e 12 180
e 86 129
e 42 59
e 28 124
e 33 239
e 107 188
e 148 189
e 5 140
e 65 191
e 192 232
e 123 132
e 68 196
e 128 247
e 7 186
e 40 134
e 67 237
e 34 60
e 72 86
e 144 191
e 37 65
e 74 132
e 19 196
e 60 197
e 5 32
e 32 135
e 51 148
e 178 189
e 16 127
e 21 242
e 95 191
e 40 255
e 155 242
e 241 245
e 7 78
e 26 91
e 67 129
e 158 247
e 70 134
e 171 186
e 9 124
e 129 189
e 148 202
e 234 242
e 41 76
e 5 153
e 132 194
e 13 14
e 25 68
e 192 245
e 104 132
e 16 19
e 2 84
e 7 199
e 81 148
e 67 250
e 20 138
e 144 204
e 226 243
e 78 79
e 23 143
e 9 245
e 9 16
e 229 248
e 96 133
e 41 197
e 8 20
e 187 251
e 27 33
e 99 138
e 32 148
e 159 189
e 11 25
e 30 38
e 16 140
e 197 215
e 117 192
e 29 79
e 34 194
e 120 197
e 20 30
e 6 95
e 111 148
e 4 22
e 23 35
e 9 137
e 50 138
e 14 215
e 41 89
e 132 207
e 25 81
e 85 95
e 30 159
e 145 146
e 2 97
e 29 200
e 62 148
e 106 154
e 6 216
e 18 41
e 4 143
e 185 218
e 23 156
e 64 157
e 97 105
e 138 143
e 96 146
e 41 210
e 8 33
e 25 202
e 99 151
e 44 215
e 200 203
e 30 51
e 71 89
e 117 205
e 29 92
e 6 108
e 92 148
e 4 35
e 212 213
e 50 151
e 110 165
e 196 205
e 3 39
e 215 218
e 66 95
e 11 159
e 30 172
e 131 224
e 24 98
e 29 213
e 1 114
e 106 167
e 6 229
e 207 219
e 4 156
e 64 170
e 105 208
e 210 224
e 17 95
e 3 160
e 77 109
e 25 215
e 66 216
e 140 165
e 33 39
e 200 216
e 24 219
e 184 208
e 10 55
e 15 170
e 1 235
e 161 224
e 1 6
e 18 175
e 119 227
e 91 165
e 3 52
e 22 65
e 195 222
e 33 160
e 66 108
e 107 109
e 112 224
e 198 227
e 24 111
e 1 127
e 128 168
e 40 55
e 100 106
e 105 221
e 191 224
e 3 173
e 121 165
e 66 229
e 33 52
e 52 65
e 79 168
e 24 232
e 98 181
e 184 221
e 10 68
e 63 160
e 142 224
e 1 248
e 40 176
e 174 176
e 31 127
e 17 229
e 72 128
e 177 181
e 135 184
e 195 235
e 33 173
e 107 122
e 5 74
e 65 125
e 10 189
e 170 178
e 68 130
e 128 181
e 114 246
e 40 68
e 67 171
e 12 235
e 86 184
e 31 248
e 72 249
e 172 187
e 232 238
e 58 122
e 89 189
e 61 127
e 102 128
e 47 192
e 162 179
e 14 15
e 181 192
e 5 195
e 165 184
e 65 246
e 32 69
e 123 187
e 35 74
e 21 176
e 40 189
e 26 254
e 7 12
e 100 240
e 53 128
e 144 246
e 56 133
e 116 184
e 9 58
e 102 249
e 179 240
e 239 254
e 5 87
e 32 190
e 65 138
e 35 195
e 150 182
e 169 195
e 7 133
e 81 82
e 67 184
e 53 249
e 20 72
e 70 189
e 56 254
e 23 77
e 9 179
e 83 128
e 28 192
e 190 254
e 162 192
e 41 131
e 74 79
e 146 184
e 5 208
e 132 249
e 165 197
e 32 82
e 16 74
e 21 189
e 62 190
e 7 254
e 76 88
e 136 139
e 34 128
e 139 144
e 6 29
e 83 249
e 157 198
e 9 71
e 69 85
e 129 136
e 41 252
e 160 203
e 220 254
e 27 88
e 113 128
e 132 141
e 32 203
e 118 206
e 30 93
e 16 195
e 90 144
e 2 31
e 7 146
e 34 249
e 20 85
e 6 150
e 37 254
e 4 77
e 171 254
e 23 90
e 9 192
e 143 155
e 41 144
e 27 209
e 113 249
e 187 198
e 206 211
e 25 136
e 247 249
e 30 214
e 104 200
e 250 254
e 16 87
e 76 101
e 117 139
e 136 152
e 120 144
e 20 206
e 6 42
e 4 198
e 18 96
e 23 211
e 97 160
e 138 198
e 55 163
e 8 88
e 13 203
e 99 206
e 25 28
e 30 106
e 16 208
e 57 209
e 71 144
e 131 158
e 24 32
e 43 45
e 29 147
e 48 160
e 194 214
e 1 48
e 6 163
e 152 217
e 4 90
e 64 104
e 105 142
e 124 155
e 17 29
e 8 209
e 127 160
e 25 149
e 66 150
e 186 215
e 2 165
e 98 102
e 189 220
e 1 169
e 87 209
e 4 211
e 78 160
e 23 224
e 17 150
e 91 99
e 110 112
e 96 214
e 75 91
e 8 101
e 154 155
e 99 219
e 11 106
e 38 209
e 57 222
e 131 171
e 24 45
e 10 110
e 29 160
e 43 58
e 84 96
e 1 61
e 64 117
e 105 155
e 17 42
e 3 107
e 108 160
e 168 174
e 209 212
e 66 163
e 167 215
e 38 101
e 79 102
e 24 166
e 98 115
e 189 233
e 101 120
e 1 182
e 128 223
e 142 158
e 40 110
e 59 160
e 64 238
e 17 163
e 3 228
e 22 241
e 223 231
e 121 220
e 33 107
e 79 223
e 5 8
e 10 123
e 101 241
e 49 51
e 54 166
e 155 218
e 174 231
e 26 67
e 12 169
e 67 105
e 86 118
e 158 223
e 70 110
e 3 120
e 209 225
e 33 228
e 126 190
e 167 228
e 19 64
e 24 179
e 65 180
e 10 244
e 170 233
e 128 236
e 147 249
e 40 123
e 72 75
e 3 241
e 144 180
e 204 231
e 56 67
e 116 118
e 181 247
e 33 120
e 165 239
e 5 21
e 32 124
e 65 72
e 101 254
e 49 64
e 68 77
e 21 231
e 109 115
e 40 244
e 155 231
e 7 67
e 67 118
e 177 249
e 218 250
e 56 188
e 89 136
e 171 175
e 9 113
e 42 61
e 33 241
e 74 242
e 148 191
e 5 142
e 65 193
e 192 234
e 104 121
e 68 198
e 62 124
e 7 188
e 67 239
e 37 67
e 19 198
e 165 252
e 51 150
e 123 255
e 197 204
e 241 247
e 7 80
e 72 209
e 92 124
e 4 11
e 171 188
e 23 24
e 9 126
e 157 253
e 148 204
e 234 244
e 41 78
e 27 143
e 113 183
e 132 196
e 13 16
e 25 70
e 151 209
e 233 248
e 16 250
e 49 198
e 16 21
e 236 253
e 2 86
e 7 201
e 34 75
e 20 140
e 226 245
e 4 132
e 23 145
e 9 247
e 102 209
e 14 96
e 96 135
e 41 199
e 8 22
e 13 137
e 25 191
e 44 204
e 99 140
e 159 191
e 11 27
e 30 40
e 16 142
e 71 78
e 90 91
e 29 81
e 20 32
e 6 97
e 78 202
e 111 150
e 4 24
e 97 215
e 23 37
e 14 217
e 22 41
e 132 209
e 25 83
e 11 148
e 44 96
e 30 161
e 71 199
e 145 148
e 2 99
e 29 202
e 48 215
e 15 38
e 106 156
e 6 218
e 166 207
e 59 81
e 78 94
e 23 158
e 64 159
e 105 197
e 17 84
e 96 148
e 41 212
e 127 215
e 8 35
e 25 204
e 99 153
e 200 205
e 11 40
e 57 156
e 203 210
e 222 223
e 29 94
e 15 159
e 6 110
e 78 215
e 17 205
e 36 218
e 55 231
e 3 41
e 215 220
e 22 54
e 8 156
e 214 224
e 66 97
e 112 213
e 24 100
e 29 215
e 1 116
e 73 221
e 6 231
e 106 169
e 64 172
e 191 213
e 17 97
e 3 162
e 66 218
e 85 231
e 33 41
e 52 54
e 24 221
e 184 210
e 203 223
e 10 57
e 1 237
e 161 226
e 59 215
e 45 51
e 17 218
e 36 231
e 77 232
e 3 54
e 80 237
e 195 224
e 33 162
e 107 111
e 198 229
e 24 113
e 65 114
e 10 178
e 115 231
e 1 129
e 128 170
e 40 57
e 100 108
e 12 224
e 3 175
e 163 164
e 66 231
e 33 54
e 24 234
e 65 235
e 165 173
e 184 223
e 10 70
e 1 250
e 21 165
e 40 178
e 155 165
e 177 183
e 77 245
e 42 224
e 75 172
e 176 224
e 28 60
e 33 175
e 107 124
e 93 189
e 198 242
e 5 76
e 65 127
e 51 192
e 156 245
e 68 132
e 128 183
e 169 184
e 7 122
e 40 70
e 67 173
e 172 189
e 232 240
e 162 181
e 14 17
e 148 246
e 19 132
e 5 197
e 165 186
e 32 71
e 63 175
e 123 189
e 16 63
e 95 127
e 7 243
e 40 191
e 114 140
e 7 14
e 155 178
e 158 183
e 144 248
e 9 60
e 14 138
e 74 189
e 160 192
e 60 254
e 179 242
e 5 89
e 32 192
e 51 205
e 49 132
e 150 184
e 2 20
e 7 135
e 81 84
e 26 148
e 67 186
e 153 189
e 20 74
e 125 127
e 70 191
e 111 192
e 23 79
e 9 181
e 83 130
e 47 207
e 143 144
e 14 30
e 41 133
e 146 186
e 5 210
e 132 251
e 32 84
e 104 189
e 16 76
e 117 128
e 62 192
e 136 141
e 34 130
e 20 195
e 139 146
e 180 184
e 6 31
e 23 200
e 56 148
e 9 73
e 96 190
e 41 254
e 160 205
e 8 77
e 27 90
e 13 192
e 132 143
e 32 205
e 159 246
e 30 95
e 16 197
e 117 249
e 2 33
e 29 136
e 62 84
e 48 149
e 134 189
e 120 254
e 194 203
e 20 87
e 6 152
e 92 192
e 4 79
e 23 92
e 9 194
e 64 93
e 124 144
e 17 18
e 41 146
e 25 138
e 30 216
e 71 254
e 57 90
e 20 208
e 106 211
e 139 159
e 6 44
e 4 200
e 23 213
e 138 200
e 55 165
e 96 203
e 8 90
e 99 208
e 30 108
e 16 210
e 131 160
e 76 224
e 24 34
e 43 47
e 29 149
e 84 85
e 1 50
e 6 165
e 152 219
e 4 92
e 64 106
e 105 144
e 17 31
e 3 96
e 36 44
e 108 149
e 27 224
e 25 151
e 66 152
e 85 165
e 30 229
e 186 217
e 24 155
e 98 104
e 189 222
e 15 106
e 101 109
e 1 171
e 87 211
e 106 224
e 142 147
e 4 213
e 17 152
e 94 106
e 121 209
e 154 157
e 33 96
e 112 160
e 57 224
e 24 47
e 10 112
e 115 165
e 216 217
e 1 63
e 193 233
e 45 106
e 3 109
e 89 112
e 8 224
e 168 176
e 209 214
e 66 165
e 24 168
e 98 117
e 63 96
e 189 235
e 142 160
e 1 184
e 87 224
e 128 225
e 40 112
e 64 240
e 31 63
e 17 165
e 3 230
e 77 179
e 204 220
e 75 106
e 80 184
e 33 109
e 19 174
e 5 10
e 46 48
e 49 53
e 40 233
e 67 107
e 31 184
e 130 163
e 42 50
e 61 63
e 47 128
e 88 166
e 126 192
e 167 230
e 19 66
e 5 131
e 65 182
e 170 235
e 82 122
e 128 238
e 40 125
e 67 228
e 53 64
e 72 77
e 3 243
e 144 182
e 223 246
e 61 184
e 181 249
e 5 252
e 165 241
e 5 23
e 32 126
e 51 139
e 156 192
e 49 66
e 35 131
e 109 117
e 40 246
e 7 69
e 67 120
e 12 184
e 72 198
e 199 239
e 111 126
e 9 115
e 135 254
e 28 128
e 33 243
e 148 193
e 41 67
e 5 144
e 132 185
e 32 247
e 65 195
e 151 198
e 192 236
e 211 249
e 62 126
e 7 190
e 26 203
e 67 241
e 86 254
e 34 64
e 20 129
e 144 195
e 37 69
e 56 82
e 9 236
e 42 184
e 28 249
e 102 198
e 162 249
e 248 252
e 146 241
e 165 254
e 32 139
e 16 131
e 35 144
e 241 249
e 7 82
e 48 83
e 53 198
e 139 201
e 20 21
e 6 86
e 4 13
e 23 26
e 9 128
e 14 206
e 148 206
e 41 80
e 132 198
e 25 72
e 192 249
e 30 150
e 16 252
e 104 136
e 16 23
e 150 252
e 2 88
e 7 203
e 15 27
e 20 142
e 106 145
e 6 207
e 18 32
e 4 134
e 78 83
e 23 147
e 9 249
e 185 209
e 229 252
e 55 99
e 41 201
e 8 24
e 25 193
e 99 142
e 11 29
e 30 42
e 16 144
e 71 80
e 2 209
e 136 209
e 29 83
e 48 96
e 34 198
e 221 253
e 6 99
e 4 255
e 92 139
e 133 140
e 4 26
e 97 217
e 152 153
e 113 198
e 25 85
e 66 86
e 85 99
e 30 163
e 145 150
e 2 101
e 29 204
e 103 153
e 15 40
e 1 105
e 87 145
e 106 158
e 6 220
e 166 209
e 207 210
e 78 96
e 105 199
e 210 215
e 17 86
e 251 253
e 36 99
e 96 150
e 108 204
e 8 37
e 25 206
e 66 207
e 99 155
e 140 156
e 200 207
e 11 42
e 219 220
e 184 199
e 117 209
e 10 46
e 29 96
e 161 215
e 31 105
e 196 209
e 3 43
e 75 148
e 66 99
e 52 164
e 112 215
e 24 102
e 29 217
e 1 118
e 128 159
e 40 46
e 207 223
e 64 174
e 105 212
e 191 215
e 17 99
e 3 164
e 168 231
e 61 105
e 66 220
e 33 43
e 126 234
e 200 220
e 38 158
e 24 223
e 10 59
e 142 215
e 1 239
e 114 116
e 119 231
e 12 105
e 31 118
e 17 220
e 58 221
e 158 159
e 3 56
e 135 175
e 195 226
e 47 62
e 179 218
e 112 228
e 198 231
e 5 65
e 24 115
e 65 116
e 128 172
e 73 236
e 188 223
e 40 59
e 67 162
e 100 110
e 86 175
e 3 177
e 77 126
e 149 231
e 42 105
e 33 56
e 19 121
e 24 236
e 65 237
e 165 175
e 225 226
e 32 60
e 142 228
e 35 65
e 40 180
e 53 119
e 72 132
e 144 237
e 9 49
e 88 113
e 33 177
e 179 231
e 198 244
e 5 78
e 65 129
e 137 234
e 7 124
e 67 175
e 130 231
e 171 232
e 102 132
e 14 19
e 148 248
e 5 199
e 165 188
e 32 73
e 16 65
e 7 245
e 40 193
e 7 16
e 125 237
e 144 250
e 157 189
e 9 62
e 69 76
e 160 194
e 201 232
e 220 245
e 113 119
e 13 181
e 32 194
e 30 84
e 16 186
e 2 22
e 7 137
e 81 86
e 172 204
e 20 76
e 4 68
e 23 81
e 9 183
e 83 132
e 69 197
e 143 146
e 14 32
e 41 135
e 60 148
e 5 212
e 132 253
e 187 189
e 25 127
e 44 140
e 104 191
e 164 205
e 16 78
e 57 79
e 76 92
e 136 143
e 34 132
e 20 197
e 139 148
e 6 33
e 23 202
e 138 189
e 96 192
e 160 207
e 8 79
e 113 132
e 132 145
e 32 207
e 30 97
e 16 199
e 71 135
e 90 148
e 2 35
e 29 138
e 175 192
e 20 89
e 6 154
e 111 207
e 4 81
e 23 94
e 64 95
e 105 133
e 17 20
e 143 159
e 8 200
e 41 148
e 25 140
e 11 205
e 30 218
e 38 79
e 76 105
e 29 30
e 120 148
e 20 210
e 106 213
e 6 46
e 4 202
e 23 215
e 64 216
e 105 254
e 138 202
e 17 141
e 55 167
e 96 205
e 8 92
e 94 95
e 99 210
e 11 97
e 71 148
e 131 162
e 24 36
e 84 87
e 29 151
e 15 216
e 194 218
e 1 52
e 6 167
e 64 108
e 50 210
e 105 146
e 17 33
e 110 224
e 3 98
e 27 226
e 66 154
e 11 218
e 30 231
e 167 206
e 24 157
e 98 106
e 84 208
e 189 224
e 15 108
e 101 111
e 1 173
e 161 162
e 106 226
e 18 113
e 4 215
e 119 165
e 64 229
e 17 154
e 3 219
e 22 232
e 75 95
e 154 159
e 140 224
e 33 98
e 24 49
e 10 114
e 216 219
e 1 65
e 12 160
e 45 108
e 91 224
e 3 111
e 149 165
e 209 216
e 33 219
e 66 167
e 79 106
e 24 170
e 65 171
e 170 224
e 189 237
e 101 124
e 1 186
e 128 227
e 147 240
e 40 114
e 100 165
e 31 65
e 3 232
e 42 160
e 61 173
e 33 111
e 93 125
e 5 12
e 10 127
e 51 128
e 137 168
e 156 181
e 101 245
e 49 55
e 40 235
e 114 184
e 7 58
e 67 109
e 31 186
e 177 240
e 130 165
e 42 52
e 28 117
e 33 232
e 148 182
e 5 133
e 65 184
e 192 225
e 51 249
e 104 112
e 123 125
e 68 189
e 7 179
e 40 127
e 26 192
e 67 230
e 81 128
e 34 53
e 86 243
e 53 66
e 72 79
e 144 184
e 19 189
e 93 138
e 5 254
e 165 243
e 5 25
e 46 63
e 32 128
e 63 232
e 178 182
e 21 235
e 95 184
e 81 249
e 7 71
e 67 122
e 72 200
e 218 254
e 111 128
e 56 192
e 171 179
e 190 192
e 9 117
e 234 235
e 41 69
e 5 146
e 46 184
e 32 249
e 132 187
e 192 238
e 211 251
e 49 189
e 35 254
e 2 77
e 169 254
e 62 128
e 7 192
e 26 205
e 67 243
e 141 192
e 34 66
e 39 144
e 125 184
e 111 249
e 185 198
e 245 249
e 23 136
e 9 238
e 28 251
e 229 241
e 248 254
e 96 126
e 41 190
e 8 13
e 13 128
e 99 131
e 32 141
e 118 144
e 159 182
e 11 18
e 30 31
e 238 246
e 2 198
e 62 249
e 136 198
e 29 72
e 120 190
e 20 252
e 139 203
e 20 23
e 199 254
e 6 88
e 37 192
e 92 128
e 4 15
e 171 192
e 23 28
e 9 130
e 69 144
e 55 209
e 129 195
e 41 82
e 13 249
e 132 200
e 25 74
e 30 152
e 16 254
e 71 190
e 150 254
e 2 90
e 29 193
e 48 206
e 15 29
e 20 144
e 106 147
e 6 209
e 92 249
e 166 198
e 185 211
e 4 136
e 226 249
e 23 149
e 9 251
e 97 98
e 229 254
e 96 139
e 41 203
e 8 26
e 25 195
e 99 144
e 85 209
e 11 31
e 30 44
e 38 134
e 2 211
e 76 160
e 117 198
e 29 85
e 180 254
e 6 101
e 92 141
e 78 206
e 152 155
e 4 28
e 50 144
e 36 209
e 196 198
e 3 32
e 27 160
e 25 87
e 66 88
e 30 165
e 145 152
e 24 91
e 43 104
e 29 206
e 115 209
e 1 107
e 106 160
e 6 222
e 105 201
e 251 255
e 17 88
e 36 101
e 25 208
e 66 209
e 200 209
e 219 222
e 24 212
e 57 160
e 203 214
e 10 48
e 142 204
e 1 228
e 73 104
e 133 155
e 17 209
e 196 211
e 3 45
e 195 215
e 66 101
e 11 165
e 198 220
e 24 104
e 1 120
e 87 160
e 128 161
e 40 48
e 64 176
e 105 214
e 17 101
e 3 166
e 22 179
e 168 233
e 80 120
e 66 222
e 121 158
e 33 45
e 24 225
e 184 214
e 10 61
e 1 241
e 202 231
e 40 169
e 114 118
e 100 220
e 155 156
e 176 215
e 47 64
e 33 166
e 107 115
e 126 128
e 198 233
e 5 67
e 46 105
e 65 118
e 170 171
e 54 225
e 128 174
e 169 175
e 40 61
e 67 164
e 100 112
e 86 177
e 3 179
e 42 107
e 126 249
e 165 177
e 65 239
e 225 228
e 32 62
e 49 231
e 183 231
e 35 67
e 95 118
e 40 182
e 144 239
e 9 51
e 102 242
e 28 64
e 74 180
e 19 244
e 239 247
e 5 80
e 32 183
e 65 131
e 156 249
e 21 61
e 7 126
e 67 177
e 213 231
e 20 65
e 39 78
e 171 234
e 23 70
e 9 172
e 28 185
e 102 134
e 47 198
e 41 124
e 5 201
e 132 242
e 65 252
e 165 190
e 32 75
e 16 67
e 183 244
e 76 81
e 7 247
e 227 250
e 144 252
e 6 22
e 9 64
e 50 65
e 14 142
e 160 196
e 113 121
e 132 134
e 32 196
e 51 209
e 30 86
e 16 188
e 71 124
e 2 24
e 7 139
e 213 244
e 20 78
e 6 143
e 125 131
e 4 70
e 23 83
e 9 185
e 28 198
e 143 148
e 215 253
e 41 137
e 27 202
e 187 191
e 132 255
e 25 129
e 30 207
e 16 80
e 117 132
e 136 145
e 81 209
e 20 199
e 139 150
e 6 35
e 4 191
e 23 204
e 69 91
e 96 194
e 160 209
e 8 81
e 25 250
e 99 199
e 30 99
e 16 201
e 76 215
e 2 37
e 29 140
e 1 41
e 6 156
e 4 83
e 64 97
e 105 135
e 124 148
e 17 22
e 108 140
e 27 215
e 25 142
e 66 143
e 30 220
e 122 223
e 1 162
e 20 212
e 106 215
e 4 204
e 78 153
e 23 217
e 64 218
e 31 41
e 17 143
e 91 92
e 36 156
e 96 207
e 8 94
e 99 212
e 11 99
e 112 151
e 57 215
e 24 38
e 43 51
e 29 153
e 175 207
e 1 54
e 87 94
e 193 224
e 31 162
e 64 110
e 105 148
e 17 35
e 3 100
e 8 215
e 94 218
e 66 156
e 11 220
e 79 95
e 24 159
e 103 223
e 189 226
e 101 113
e 1 175
e 87 215
e 106 228
e 142 151
e 100 154
e 64 231
e 12 41
e 31 54
e 17 156
e 91 105
e 3 221
e 77 170
e 182 223
e 223 224
e 33 100
e 38 215
e 24 51
e 15 231
e 216 221
e 18 236
e 174 224
e 67 98
e 70 103
e 3 113
e 130 154
e 94 231
e 209 218
e 33 221
e 65 173
e 10 237
e 189 239
e 128 229
e 40 116
e 45 231
e 53 55
e 58 170
e 3 234
e 144 173
e 204 224
e 56 60
e 162 227
e 33 113
e 165 232
e 98 242
e 5 14
e 82 234
e 21 224
e 40 237
e 155 224
e 7 60
e 174 237
e 67 111
e 72 189
e 177 242
e 218 243
e 75 231
e 9 106
e 47 132
e 33 234
e 148 184
e 93 248
e 5 135
e 65 186
e 151 189
e 192 227
e 123 127
e 128 242
e 7 181
e 67 232
e 72 81
e 144 186
e 37 60
e 204 237
e 116 124
e 102 189
e 14 76
e 60 192
e 165 245
e 46 65
e 32 130
e 178 184
e 16 122
e 40 250
e 7 73
e 53 189
e 139 192
e 39 254
e 92 117
e 37 181
e 171 181
e 9 119
e 28 132
e 69 133
e 129 184
e 148 197
e 160 251
e 41 71
e 234 237
e 5 148
e 46 186
e 32 251
e 25 63
e 132 189
e 44 76
e 192 240
e 104 127
e 16 243
e 90 192
e 252 254
e 2 79
e 7 194
e 67 245
e 122 144
e 20 133
e 111 251
e 23 138
e 9 240
e 83 189
e 69 254
e 96 128
e 41 192
e 8 15
e 27 28
e 25 184
e 99 133
e 159 184
e 104 248
e 11 20
e 30 33
e 16 135
e 35 148
e 136 200
e 29 74
e 34 189
e 120 192
e 20 254
e 20 25
e 6 90
e 37 194
e 111 143
e 4 17
e 23 30
e 69 146
e 96 249
e 8 136
e 41 84
e 113 189
e 99 254
e 132 202
e 25 76
e 233 254
e 30 154
e 71 192
e 2 92
e 29 195
e 103 144
e 48 208
e 15 31
e 20 146
e 106 149
e 6 211
e 226 251
e 4 138
e 78 87
e 23 151
e 9 253
e 50 254
e 64 152
e 97 100
e 17 77
e 105 190
e 96 141
e 41 205
e 8 28
e 25 197
e 99 146
e 44 210
e 11 33
e 2 213
e 117 200
e 29 87
e 73 93
e 6 103
e 133 144
e 152 157
e 17 198
e 50 146
e 110 160
e 55 224
e 3 34
e 94 152
e 66 90
e 30 167
e 24 93
e 43 106
e 29 208
e 84 144
e 115 211
e 1 109
e 106 162
e 6 224
e 207 214
e 64 165
e 105 203
e 210 219
e 17 90
e 3 155
e 36 103
e 66 211
e 140 160
e 85 224
e 33 34
e 24 214
e 184 203
e 10 50
e 15 165
e 142 206
e 1 230
e 73 106
e 18 170
e 100 209
e 133 157
e 12 96
e 17 211
e 91 160
e 36 224
e 3 47
e 94 165
e 154 216
e 33 155
e 66 103
e 198 222
e 24 106
e 65 107
e 115 224
e 1 122
e 54 214
e 128 163
e 188 214
e 40 50
e 100 101
e 45 165
e 31 230
e 3 168
e 77 117
e 130 209
e 42 96
e 168 235
e 121 160
e 66 224
e 33 47
e 126 238
e 19 112
e 24 227
e 184 216
e 10 63
e 51 64
e 1 243
e 54 106
e 40 171
e 114 120
e 155 158
e 75 165
e 176 217
e 28 53
e 47 66
e 33 168
e 107 117
e 198 235
e 5 69
e 65 120
e 10 184
e 49 112
e 128 176
e 7 115
e 40 63
e 26 128
e 67 166
e 213 220
e 232 233
e 102 123
e 47 187
e 148 239
e 60 126
e 165 179
e 65 241
e 151 244
e 32 64
e 51 77
e 82 181
e 16 56
e 40 184
e 26 249
e 72 136
e 144 241
e 56 128
e 9 53
e 135 192
e 28 66
e 239 249
e 5 82
e 32 185
e 51 198
e 2 13
e 114 254
e 62 64
e 7 128
e 169 190
e 34 231
e 67 179
e 20 67
e 232 246
e 70 184
e 56 249
e 23 72
e 9 174
e 83 123
e 190 249
e 231 250
e 47 200
e 14 23
e 148 252
e 41 126
e 146 179
e 5 203
e 132 244
e 13 64
e 32 77
e 123 195
e 164 196
e 16 69
e 2 134
e 21 184
e 7 249
e 81 198
e 141 249
e 120 126
e 20 188
e 53 136
e 144 254
e 6 24
e 37 128
e 23 193
e 9 66
e 50 67
e 14 144
e 160 198
e 8 70
e 220 249
e 113 123
e 132 136
e 32 198
e 30 88
e 16 190
e 90 139
e 76 204
e 150 190
e 2 26
e 29 129
e 194 196
e 20 80
e 6 145
e 37 249
e 111 198
e 4 72
e 171 249
e 23 85
e 9 187
e 143 150
e 215 255
e 41 139
e 27 204
e 25 131
e 30 209
e 38 70
e 164 209
e 57 83
e 76 96
e 62 198
e 103 199
e 20 201
e 106 204
e 6 37
e 4 193
e 78 142
e 23 206
e 96 196
e 160 211
e 201 249
e 8 83
e 27 96
e 13 198
e 25 252
e 99 201
e 113 136
e 118 214
e 159 252
e 30 101
e 16 203
e 24 27
e 29 142
e 15 207
e 194 209
e 1 43
e 6 158
e 18 212
e 92 198
e 4 85
e 64 99
e 105 137
e 17 24
e 110 215
e 36 37
e 25 144
e 66 145
e 11 209
e 30 222
e 145 209
e 24 148
e 57 96
e 189 215
e 15 99
e 101 102
e 1 164
e 106 217
e 4 206
e 64 220
e 17 145
e 91 94
e 96 209
e 75 86
e 94 99
e 99 214
e 140 215
e 57 217
e 98 218
e 24 40
e 10 105
e 43 53
e 175 209
e 1 56
e 54 148
e 87 96
e 45 99
e 105 150
e 91 215
e 17 37
e 3 102
e 75 207
e 8 217
e 149 156
e 168 169
e 66 158
e 170 215
e 189 228
e 142 153
e 1 177
e 128 218
e 161 166
e 147 231
e 40 105
e 205 209
e 64 233
e 17 158
e 58 159
e 3 223
e 75 99
e 121 215
e 33 102
e 93 116
e 98 231
e 10 118
e 216 223
e 40 226
e 73 174
e 67 100
e 177 231
e 70 105
e 130 156
e 42 43
e 33 223
e 19 59
e 5 124
e 79 110
e 65 175
e 82 115
e 128 231
e 21 105
e 40 118
e 67 221
e 3 236
e 144 175
e 56 62
e 14 65
e 5 245
e 79 231
e 165 234
e 5 16
e 46 54
e 32 119
e 63 223
e 51 132
e 65 67
e 49 59
e 109 110
e 40 239
e 7 62
e 174 239
e 67 113
e 12 177
e 158 231
e 9 108
e 33 236
e 148 186
e 41 60
e 5 137
e 132 178
e 32 240
e 65 188
e 151 191
e 44 65
e 192 229
e 211 242
e 109 231
e 21 118
e 7 183
e 81 132
e 67 234
e 39 135
e 89 252
e 185 189
e 9 229
e 14 78
e 41 181
e 60 194
e 165 247
e 32 132
e 16 124
e 136 189
e 241 242
e 7 75
e 48 76
e 34 178
e 6 79
e 111 132
e 4 6
e 9 121
e 41 73
e 60 86
e 132 191
e 32 253
e 25 65
e 192 242
e 30 143
e 16 245
e 150 245
e 236 248
e 2 81
e 62 132
e 7 196
e 153 250
e 15 20
e 39 148
e 166 189
e 18 25
e 4 127
e 23 140
e 9 242
e 124 192
e 143 205
e 229 245
e 96 130
e 41 194
e 8 17
e 187 248
e 27 30
e 13 132
e 25 186
e 118 148
e 11 22
e 145 251
e 30 35
e 117 189
e 136 202
e 29 76
e 48 89
e 180 245
e 6 92
e 4 248
e 92 132
e 4 19
e 69 148
e 96 251
e 154 192
e 173 205
e 25 78
e 66 79
e 11 143
e 85 92
e 30 156
e 217 248
e 2 94
e 84 133
e 29 197
e 15 33
e 1 98
e 20 148
e 6 213
e 59 76
e 4 140
e 78 89
e 23 153
e 64 154
e 105 192
e 17 79
e 55 105
e 96 143
e 8 30
e 25 199
e 66 200
e 99 148
e 85 213
e 140 149
e 11 35
e 2 215
e 84 254
e 184 192
e 203 205
e 29 89
e 59 197
e 133 146
e 152 159
e 17 200
e 3 36
e 66 92
e 85 105
e 112 208
e 24 95
e 84 146
e 29 210
e 1 111
e 106 164
e 6 226
e 147 165
e 64 167
e 105 205
e 17 92
e 3 157
e 77 106
e 168 224
e 66 213
e 33 36
e 200 213
e 79 152
e 24 216
e 98 165
e 184 205
e 203 218
e 10 52
e 1 232
e 202 222
e 54 95
e 119 224
e 17 213
e 91 162
e 3 49
e 75 154
e 94 167
e 80 232
e 195 219
e 47 55
e 33 157
e 88 93
e 179 211
e 198 224
e 24 108
e 65 109
e 128 165
e 147 178
e 40 52
e 100 103
e 12 219
e 86 168
e 58 106
e 3 170
e 149 224
e 162 163
e 33 49
e 79 165
e 24 229
e 65 230
e 165 168
e 32 53
e 51 66
e 1 245
e 183 222
e 202 235
e 21 160
e 40 173
e 114 122
e 100 224
e 155 160
e 12 111
e 158 165
e 144 230
e 77 240
e 177 178
e 56 117
e 9 42
e 80 245
e 88 106
e 33 170
e 93 184
e 179 224
e 198 237
e 5 71
e 46 109
e 65 122
e 137 227
e 49 114
e 109 165
e 21 52
e 7 117
e 67 168
e 172 184
e 232 235
e 130 224
e 47 189
e 148 241
e 60 128
e 5 192
e 165 181
e 65 243
e 225 232
e 32 66
e 123 184
e 16 58
e 21 173
e 7 238
e 40 186
e 7 9
e 144 243
e 9 55
e 102 246
e 74 184
e 160 187
e 60 249
e 201 225
e 239 251
e 5 84
e 32 187
e 178 241
e 197 254
e 16 179
e 49 127
e 35 192
e 90 128
e 2 15
e 169 192
e 62 66
e 7 130
e 67 181
e 153 184
e 172 197
e 20 69
e 23 74
e 9 176
e 231 252
e 28 189
e 14 254
e 14 25
e 148 254
e 41 128
e 5 205
e 132 246
e 13 66
e 25 120
e 104 184
e 90 249
e 164 198
e 16 71
e 76 85
e 7 251
e 208 241
e 227 254
e 120 128
e 20 190
e 139 141
e 6 26
e 97 144
e 83 246
e 69 82
e 96 185
e 41 249
e 160 200
e 8 72
e 99 190
e 32 200
e 44 254
e 118 203
e 132 138
e 178 254
e 30 90
e 16 192
e 71 128
e 90 141
e 2 28
e 29 131
e 48 144
e 134 184
e 120 249
e 194 198
e 20 82
e 6 147
e 4 74
e 212 252
e 23 87
e 9 189
e 64 88
e 105 126
e 143 152
e 129 254
e 41 141
e 127 144
e 206 208
e 25 133
e 11 198
e 30 211
e 71 249
e 145 198
e 250 251
e 43 150
e 29 252
e 249 255
e 20 203
e 106 206
e 6 39
e 4 195
e 59 131
e 23 208
e 64 209
e 78 144
e 105 247
e 17 134
e 50 82
e 55 160
e 96 198
e 8 85
e 25 254
e 99 203
e 159 254
e 30 103
e 112 142
e 131 155
e 24 29
e 29 144
e 115 147
e 15 209
e 175 198
e 194 211
e 1 45
e 6 160
e 92 200
e 64 101
e 50 203
e 105 139
e 17 26
e 3 91
e 36 39
e 108 144
e 8 206
e 94 209
e 27 219
e 66 147
e 85 160
e 30 224
e 145 211
e 79 86
e 24 150
e 98 99
e 189 217
e 15 101
e 1 166
e 106 219
e 18 106
e 4 208
e 45 209
e 59 144
e 64 222
e 12 32
e 17 147
e 91 96
e 3 212
e 36 160
e 163 201
e 182 214
e 33 91
e 24 42
e 10 107
e 115 160
e 15 222
e 101 225
e 1 58
e 54 150
e 174 215
e 3 104
e 22 117
e 75 209
e 94 222
e 168 171
e 33 212
e 66 160
e 79 99
e 24 163
e 65 164
e 101 117
e 1 179
e 128 220
e 40 107
e 12 45
e 3 225
e 89 228
e 204 215
e 121 217
e 140 230
e 181 231
e 33 104
e 52 117
e 10 120
e 137 161
e 40 228
e 155 215
e 7 51
e 26 64
e 67 102
e 158 220
e 89 120
e 42 45
e 33 225
e 148 175
e 60 62
e 5 126
e 65 177
e 211 231
e 104 105
e 128 233
e 169 234
e 40 120
e 81 121
e 67 223
e 172 239
e 58 174
e 144 177
e 204 228
e 56 64
e 28 231
e 162 231
e 14 67
e 181 244
e 19 182
e 5 247
e 165 236
e 5 18
e 32 121
e 123 239
e 40 241
e 7 64
e 67 115
e 171 172
e 9 110
e 135 249
e 74 239
e 148 188
e 41 62
e 5 139
e 132 180
e 32 242
e 192 231
e 44 67
e 104 118
e 109 233
e 7 185
e 81 134
e 26 198
e 67 236
e 34 59
e 20 124
e 144 190
e 185 191
e 37 64
e 226 229
e 23 129
e 9 231
e 56 77
e 83 180
e 41 183
e 165 249
e 32 134
e 238 239
e 16 126
e 76 140
e 29 65
e 241 244
e 20 245
e 6 81
e 23 250
e 4 8
e 56 198
e 9 123
e 160 255
e 41 75
e 132 193
e 32 255
e 25 67
e 192 244
e 30 145
e 16 247
e 2 83
e 62 134
e 134 239
e 15 22
e 106 140
e 6 202
e 166 191
e 111 255
e 18 27
e 59 65
e 226 242
e 23 142
e 9 244
e 143 207
e 55 94
e 41 196
e 96 132
e 127 199
e 8 19
e 27 32
e 25 188
e 99 137
e 118 150
e 104 252
e 11 24
e 30 37
e 16 139
e 29 78
e 15 143
e 139 209
e 180 247
e 6 94
e 4 250
e 18 148
e 4 21
e 224 253
e 55 215
e 96 253
e 8 140
e 25 80
e 66 81
e 30 158
e 24 84
e 29 199
e 103 148
e 1 100
e 106 153
e 6 215
e 166 204
e 18 40
e 4 142
e 64 156
e 105 194
e 17 81
e 25 201
e 66 202
e 99 150
e 85 215
e 57 153
e 184 194
e 203 207
e 10 41
e 1 221
e 73 97
e 133 148
e 17 202
e 36 215
e 3 38
e 66 94
e 198 213
e 24 97
e 84 148
e 115 215
e 1 113
e 128 154
e 40 41
e 64 169
e 105 207
e 17 94
e 3 159
e 77 108
e 149 213
e 80 113
e 66 215
e 140 164
e 33 38
e 24 218
e 184 207
e 43 231
e 10 54
e 1 234
e 202 224
e 40 162
e 17 215
e 75 156
e 61 221
e 176 208
e 195 221
e 88 95
e 33 159
e 107 108
e 198 226
e 5 60
e 65 111
e 10 175
e 128 167
e 73 231
e 21 41
e 40 54
e 67 157
e 12 221
e 100 105
e 191 223
e 3 172
e 102 114
e 88 216
e 162 165
e 5 181
e 24 231
e 65 232
e 165 170
e 32 55
e 63 159
e 82 172
e 183 224
e 40 175
e 144 232
e 177 180
e 61 234
e 9 44
e 47 70
e 74 173
e 19 237
e 93 186
e 5 73
e 46 111
e 32 176
e 65 124
e 51 189
e 7 119
e 26 132
e 67 170
e 213 224
e 232 237
e 39 71
e 130 226
e 9 165
e 83 114
e 102 127
e 47 191
e 88 229
e 162 178
e 148 243
e 41 117
e 5 194
e 46 232
e 65 245
e 165 183
e 32 68
e 16 60
e 35 73
e 7 240
e 81 189
e 26 253
e 7 11
e 227 243
e 39 192
e 144 245
e 6 15
e 56 132
e 42 234
e 83 235
e 157 184
e 9 57
e 50 58
e 160 189
e 113 114
e 13 176
e 32 189
e 118 192
e 51 202
e 178 243
e 30 79
e 16 181
e 2 17
e 7 132
e 20 71
e 4 63
e 23 76
e 9 178
e 231 254
e 124 128
e 69 192
e 215 246
e 41 130
e 132 248
e 25 122
e 30 200
e 16 73
e 117 125
e 62 189
e 48 254
e 20 192
e 139 143
e 180 181
e 6 28
e 4 184
e 138 184
e 69 84
e 96 187
e 41 251
e 160 202
e 8 74
e 13 189
e 25 243
e 99 192
e 30 92
e 16 194
e 131 144
e 2 30
e 29 133
e 175 187
e 1 34
e 6 149
e 92 189
e 78 254
e 111 202
e 4 76
e 212 254
e 23 89
e 64 90
e 50 192
e 105 128
e 110 206
e 25 135
e 66 136
e 85 149
e 30 213
e 76 100
e 29 254
e 20 205
e 106 208
e 4 197
e 64 211
e 105 249
e 17 136
e 22 214
e 96 200
e 108 254
e 242 254
e 8 87
e 99 205
e 140 206
e 52 93
e 112 144
e 131 157
e 184 249
e 24 31
e 43 44
e 29 146
e 194 213
e 1 47
e 73 152
e 59 254
e 152 216
e 193 217
e 64 103
e 105 141
e 17 28
e 3 93
e 22 106
e 108 146
e 66 149
e 79 88
e 24 152
e 98 101
e 43 165
e 189 219
e 101 106
e 1 168
e 142 144
e 106 221
e 45 211
e 119 160
e 64 224
e 17 149
e 3 214
e 75 90
e 33 93
e 52 106
e 79 209
e 24 44
e 10 109
e 115 162
e 15 224
e 73 165
e 91 219
e 3 106
e 130 147
e 149 160
e 168 173
e 209 211
e 33 214
e 52 227
e 19 50
e 24 165
e 65 166
e 189 232
e 82 106
e 109 209
e 1 181
e 128 222
e 21 96
e 40 109
e 100 160
e 45 224
e 3 227
e 144 166
e 47 233
e 33 106
e 74 107
e 19 171
e 165 225
e 5 7
e 10 122
e 49 50
e 54 165
e 40 230
e 155 217
e 7 53
e 26 66
e 67 104
e 72 182
e 158 222
e 130 160
e 75 224
e 42 47
e 135 238
e 33 227
e 148 177
e 60 64
e 5 128
e 65 179
e 10 243
e 151 182
e 192 220
e 63 106
e 104 107
e 68 184
e 128 235
e 7 174
e 40 122
e 67 225
e 86 238
e 53 61
e 72 74
e 70 230
e 144 179
e 37 53
e 56 66
e 116 117
e 181 246
e 19 184
e 5 249
e 165 238
e 13 110
e 46 58
e 32 123
e 16 115
e 35 128
e 40 243
e 81 244
e 7 66
e 48 67
e 218 249
e 111 123
e 171 174
e 9 112
e 148 190
e 160 244
e 41 64
e 5 141
e 13 231
e 32 244
e 25 56
e 132 182
e 44 69
e 192 233
e 104 120
e 16 236
e 49 184
e 35 249
e 123 133
e 2 72
e 169 249
e 7 187
e 67 238
e 172 254
e 20 126
e 226 231
e 37 66
e 23 131
e 9 233
e 229 236
e 248 249
e 96 121
e 41 185
e 60 198
e 99 126
e 32 136
e 11 13
e 123 254
e 16 128
e 29 67
e 241 246
e 48 80
e 34 182
e 20 247
e 139 198
e 199 249
e 6 83
e 111 136
e 23 252
e 4 10
e 9 125
e 96 242
e 41 77
e 13 244
e 99 247
e 132 195
e 25 69
e 173 196
e 30 147
e 16 249
e 71 185
e 90 198
e 150 249
e 236 252
e 2 85
e 29 188
e 48 201
e 153 254
e 15 24
e 20 139
e 106 142
e 6 204
e 18 29
e 59 67
e 78 80
e 23 144
e 9 246
e 64 145
e 105 183
e 124 196
e 17 70
e 143 209
e 229 249
e 55 96
e 41 198
e 96 134
e 8 21
e 25 190
e 99 139
e 44 203
e 159 190
e 11 26
e 71 77
e 76 155
e 29 80
e 120 198
e 180 249
e 6 96
e 4 252
e 18 150
e 224 255
e 91 140
e 96 255
e 3 27
e 22 40
e 27 155
e 173 209
e 66 83
e 85 96
e 30 160
e 71 198
e 24 86
e 43 99
e 29 201
e 1 102
e 106 155
e 6 217
e 4 144
e 64 158
e 105 196
e 124 209
e 17 83
e 3 148
e 36 96
e 108 201
e 168 215
e 209 253
e 66 204
e 200 204
e 24 207
e 98 156
e 184 196
e 203 209
e 10 43
e 1 223
e 54 86
e 73 99
e 119 215
e 17 204
e 3 40
e 94 158
e 154 209
e 195 210
e 214 223
e 33 148
e 66 96
e 198 215
e 24 99
e 65 100
e 68 105
e 1 115
e 128 156
e 40 43
e 31 223
e 3 161
e 22 174
e 149 215
e 66 217
e 33 40
e 126 231
e 19 105
e 24 220
e 184 209
e 10 56
e 51 57
e 63 148
e 1 236
e 202 226
e 54 99
e 40 164
e 100 215
e 12 102
e 17 217
e 58 218
e 77 231
e 47 59
e 33 161
e 107 110
e 179 215
e 198 228
e 5 62
e 65 113
e 156 231
e 49 105
e 68 118
e 128 169
e 73 233
e 169 170
e 7 108
e 40 56
e 26 121
e 67 159
e 172 175
e 72 237
e 130 215
e 162 167
e 107 231
e 5 183
e 165 172
e 65 234
e 32 57
e 51 70
e 35 62
e 53 116
e 58 231
e 144 234
e 56 121
e 61 236
e 9 46
e 239 242
e 5 75
e 32 178
e 137 231
e 35 183
e 2 6
e 169 183
e 7 121
e 67 172
e 12 236
e 172 188
e 20 60
e 232 239
e 23 65
e 9 167
e 102 129
e 88 231
e 129 232
e 14 16
e 148 245
e 41 119
e 60 132
e 5 196
e 132 237
e 65 247
e 165 185
e 32 70
e 68 252
e 16 62
e 164 189
e 7 242
e 20 181
e 144 247
e 6 17
e 23 186
e 42 236
e 9 59
e 41 240
e 160 191
e 113 116
e 32 191
e 30 81
e 16 183
e 90 132
e 35 196
e 150 183
e 2 19
e 29 122
e 134 175
e 20 73
e 6 138
e 37 242
e 4 65
e 23 78
e 9 180
e 124 130
e 41 132
e 132 250
e 25 124
e 44 137
e 30 202
e 16 75
e 117 127
e 103 192
e 136 140
e 15 79
e 120 132
e 20 194
e 106 197
e 180 183
e 6 30
e 4 186
e 59 122
e 23 199
e 97 148
e 55 151
e 41 253
e 96 189
e 160 204
e 8 76
e 242 243
e 27 89
e 25 245
e 99 194
e 159 245
e 30 94
e 16 196
e 71 132
e 131 146
e 29 135
e 115 138
e 48 148
e 175 189
e 1 36
e 6 151
e 133 192
e 4 78
e 64 92
e 105 130
e 127 148
e 25 137
e 66 138
e 30 215
e 38 76
e 57 89
e 84 192
e 189 208
e 122 218
e 230 246
e 1 157
e 106 210
e 4 199
e 78 148
e 64 213
e 105 251
e 17 138
e 163 192
e 96 202
e 75 79
e 8 89
e 184 251
e 24 33
e 10 98
e 43 46
e 101 216
e 1 49
e 152 218
e 64 105
e 105 143
e 17 30
e 3 95
e 108 148
e 66 151
e 11 215
e 126 165
e 24 154
e 98 103
e 189 221
e 101 108
e 1 170
e 128 211
e 147 224
e 40 98
e 64 226
e 12 36
e 17 151
e 3 216
e 77 165
e 75 92
e 94 105
e 33 95
e 98 224
e 10 111
e 137 152
e 156 165
e 101 229
e 40 219
e 67 93
e 193 232
e 86 106
e 177 224
e 3 108
e 130 149
e 209 213
e 88 152
e 33 216
e 107 165
e 52 229
e 5 117
e 79 103
e 65 168
e 63 95
e 128 224
e 40 111
e 100 162
e 58 165
e 3 229
e 144 168
e 204 219
e 80 183
e 33 108
e 79 224
e 165 227
e 5 9
e 46 47
e 32 112
e 137 165
e 49 52
e 40 232
e 155 219
e 7 55
e 67 106
e 86 119
e 72 184
e 158 224
e 70 111
e 130 162
e 9 101
e 88 165
e 33 229
e 148 179
e 41 53
e 60 66
e 5 130
e 132 171
e 65 181
e 151 184
e 192 222
e 104 109
e 68 186
e 109 224
e 7 176
e 26 189
e 67 227
e 34 50
e 53 63
e 39 128
e 144 181
e 9 222
e 42 170
e 102 184
e 5 251
e 165 240
e 32 125
e 118 128
e 178 179
e 16 117
e 7 68
e 39 249
e 199 238
e 6 72
e 218 251
e 56 189
e 116 240
e 9 114
e 28 127
e 69 128
e 14 192
e 148 192
e 160 246
e 41 66
e 132 184
e 32 246
e 25 58
e 118 249
e 192 235
e 233 236
e 30 136
e 16 238
e 236 241
e 2 74
e 62 125
e 7 189
e 134 230
e 153 243
e 34 63
e 20 128
e 166 182
e 4 120
e 245 246
e 23 133
e 9 235
e 83 184
e 69 249
e 143 198
e 248 251
e 96 123
e 41 187
e 8 10
e 206 254
e 25 179
e 99 128
e 44 192
e 11 15
e 178 192
e 16 130
e 76 144
e 29 69
e 34 184
e 20 249
e 139 200
e 6 85
e 37 189
e 92 125
e 23 254
e 4 12
e 157 254
e 50 128
e 110 142
e 55 206
e 96 244
e 22 29
e 27 144
e 99 249
e 173 198
e 25 71
e 66 72
e 233 249
e 30 149
e 16 251
e 217 241
e 236 254
e 2 87
e 106 144
e 6 206
e 226 246
e 23 146
e 64 147
e 50 249
e 105 185
e 124 198
e 17 72
e 229 251
e 22 150
e 41 200
e 96 136
e 8 23
e 187 254
e 25 192
e 11 28
e 38 131
e 57 144
e 184 185
e 43 209
e 76 157
e 29 82
e 221 252
e 73 88
e 4 254
e 138 254
e 3 29
e 8 144
e 154 198
e 66 85
e 217 254
e 24 88
e 29 203
e 115 206
e 15 39
e 1 104
e 87 144
e 73 209
e 6 219
e 207 209
e 59 82
e 64 160
e 105 198
e 210 214
e 17 85
e 251 252
e 3 150
e 77 99
e 66 206
e 140 155
e 200 206
e 38 144
e 24 209
e 184 198
e 203 211
e 10 45
e 15 160
e 1 225
e 18 165
e 133 152
e 17 206
e 91 155
e 3 42
e 94 160
e 33 150
e 198 217
e 24 101
e 65 102
e 156 220
e 54 209
e 128 158
e 21 32
e 188 209
e 40 45
e 45 160
e 31 225
e 191 214
e 58 99
e 3 163
e 66 219
e 33 42
e 79 158
e 24 222
e 65 223
e 10 58
e 51 59
e 68 228
e 1 238
e 183 215
e 40 166
e 114 115
e 100 217
e 53 105
e 42 212
e 75 160
e 135 174
e 88 99
e 33 163
e 179 217
e 198 230
e 5 64
e 65 115
e 95 223
e 128 171
e 169 172
e 7 110
e 40 58
e 67 161
e 213 215
e 39 62
e 70 166
e 190 231
e 42 104
e 83 105
e 102 118
e 88 220
e 148 234
e 181 182
e 165 174
e 65 236
e 32 59
e 16 51
e 35 64
e 7 231
e 40 179
e 141 231
e 34 105
e 53 118
e 39 183
e 144 236
e 56 123
e 9 48
e 28 61
e 160 180
e 220 231
e 5 77
e 32 180
e 16 172
e 2 8
e 114 249
e 169 185
e 7 123
e 34 226
e 67 174
e 20 62
e 37 231
e 171 231
e 23 67
e 9 169
e 231 245
e 14 247
e 148 247
e 41 121
e 5 198
e 132 239
e 25 113
e 32 72
e 49 241
e 16 64
e 76 78
e 7 244
e 122 194
e 227 247
e 120 121
e 20 183
e 144 249
e 6 19
e 185 250
e 23 188
e 157 188
e 9 61
e 96 178
e 41 242
e 160 193
e 201 231
e 8 65
e 220 244
e 113 118
e 99 183
e 30 83
e 16 185
e 35 198
e 2 21
e 29 124
e 20 75
e 6 140
e 37 244
e 4 67
e 212 245
e 23 80
e 9 182
e 64 81
e 105 119
e 124 132
e 143 145
e 215 250
e 108 124
e 41 134
e 187 188
e 132 252
e 25 126
e 30 204
e 38 65
e 76 91
e 29 245
e 103 194
e 120 134
e 20 196
e 106 199
e 6 32
e 4 188
e 59 124
e 64 202
e 96 191
e 242 245
e 8 78
e 27 91
e 99 196
e 118 209
e 30 96
e 57 199
e 131 148
e 29 137
e 175 191
e 1 38
e 6 153
e 4 80
e 64 94
e 105 132
e 17 19
e 3 84
e 94 202
e 66 140
e 30 217
e 71 255
e 24 143
e 230 248
e 1 159
e 87 199
e 18 99
e 4 201
e 45 202
e 119 151
e 64 215
e 12 25
e 105 253
e 17 140
e 3 205
e 36 153
e 77 154
e 33 84
e 112 148
e 184 253
e 24 35
e 10 100
e 15 215
e 175 204
e 1 51
e 86 95
e 31 159
e 3 97
e 94 215
e 33 205
e 66 153
e 167 205
e 19 41
e 186 218
e 24 156
e 98 105
e 10 221
e 189 223
e 142 148
e 1 172
e 128 213
e 40 100
e 45 215
e 58 154
e 3 218
e 89 221
e 22 231
e 181 224
e 33 97
e 98 226
e 10 113
e 51 114
e 101 231
e 40 221
e 7 44
e 67 95
e 89 113
e 75 215
e 33 218
e 52 231
e 5 119
e 79 105
e 65 170
e 10 234
e 211 224
e 109 213
e 128 226
e 40 113
e 67 216
e 141 165
e 34 39
e 125 157
e 144 170
e 37 44
e 204 221
e 56 57
e 162 224
e 93 124
e 5 240
e 165 229
e 5 11
e 32 114
e 82 231
e 49 54
e 40 234
e 7 57
e 67 108
e 12 172
e 111 114
e 9 103
e 129 168
e 148 181
e 41 55
e 5 132
e 46 170
e 32 235
e 65 183
e 132 173
e 44 60
e 192 224
e 104 111
e 123 124
e 2 63
e 7 178
e 26 191
e 67 229
e 20 117
e 53 65
e 39 130
e 125 170
e 111 235
e 144 183
e 23 122
e 9 224
e 83 173
e 41 176
e 60 189
e 5 253
e 165 242
e 32 127
e 104 232
e 178 181
e 16 119
e 35 132
e 136 184
e 29 58
e 139 189
e 6 74
e 111 127
e 97 192
e 171 178
e 9 116
e 41 68
e 132 186
e 32 248
e 25 60
e 192 237
e 233 238
e 30 138
e 16 240
e 90 189
e 104 124
e 2 76
e 62 127
e 7 191
e 48 192
e 103 128
e 20 130
e 106 133
e 166 184
e 18 20
e 4 122
e 226 235
e 23 135
e 9 237
e 248 253
e 55 87
e 41 189
e 96 125
e 27 254
e 8 12
e 127 192
e 25 181
e 99 130
e 118 143
e 11 17
e 16 132
e 117 184
e 62 248
e 103 249
e 29 71
e 120 189
e 20 251
e 139 202
e 240 254
e 6 87
e 4 243
e 78 192
e 4 14
e 224 246
e 36 195
e 110 144
e 55 208
e 96 246
e 22 31
e 154 187
e 99 251
e 25 73
e 66 74
e 85 87
e 30 151
e 16 253
e 57 254
e 71 189
e 90 202
e 24 77
e 29 192
e 122 154
e 1 93
e 106 146
e 133 249
e 18 33
e 59 71
e 45 136
e 64 149
e 17 74
e 96 138
e 8 254
e 108 192
e 25 194
e 66 195
e 99 143
e 140 144
e 11 30
e 184 187
e 84 249
e 10 34
e 1 214
e 87 254
e 161 203
e 221 254
e 59 192
e 31 93
e 17 195
e 91 144
e 163 249
e 196 197
e 3 31
e 66 87
e 38 254
e 24 90
e 29 205
e 1 106
e 128 147
e 147 160
e 188 198
e 64 162
e 105 200
e 251 254
e 17 87
e 3 152
e 77 101
e 22 165
e 61 93
e 80 106
e 66 208
e 140 157
e 126 222
e 24 211
e 98 160
e 43 224
e 184 200
e 10 47
e 101 165
e 1 227
e 40 155
e 31 106
e 58 209
e 91 157
e 3 44
e 47 50
e 33 152
e 52 165
e 198 219
e 5 53
e 65 104
e 156 222
e 49 96
e 68 109
e 128 160
e 73 224
e 40 47
e 26 112
e 67 150
e 3 165
e 168 232
e 61 106
e 47 171
e 88 209
e 33 44
e 79 160
e 24 224
e 65 225
e 32 48
e 82 165
e 40 168
e 114 117
e 12 106
e 158 160
e 144 225
e 116 163
e 9 37
e 80 240
e 47 63
e 33 165
e 5 66
e 65 117
e 197 236
e 109 160
e 54 224
e 169 174
e 7 112
e 67 163
e 53 228
e 39 64
e 56 233
e 9 158
e 42 106
e 102 120
e 47 184
e 162 171
e 107 235
e 148 236
e 165 176
e 65 238
e 32 61
e 63 165
e 49 230
e 16 53
e 35 66
e 21 168
e 7 233
e 81 182
e 144 238
e 6 8
e 9 50
e 14 128
e 74 179
e 19 243
e 160 182
e 27 67
e 239 246
e 32 182
e 30 72
e 16 174
e 71 110
e 90 123
e 197 249
e 2 10
e 7 125
e 134 166
e 34 228
e 172 192
e 72 254
e 20 64
e 39 77
e 4 56
e 171 233
e 23 69
e 9 171
e 231 247
e 28 184
e 14 249
e 148 249
e 41 123
e 46 238
e 132 241
e 25 115
e 151 254
e 44 128
e 16 66
e 57 67
e 117 118
e 7 246
e 227 249
e 120 123
e 20 185
e 6 21
e 4 177
e 23 190
e 102 254
e 50 64
e 69 77
e 96 180
e 41 244
e 160 195
e 8 67
e 113 120
e 25 236
e 99 185
e 44 249
e 118 198
e 11 72
e 178 249
e 30 85
e 16 187
e 219 250
e 2 252
e 2 23
e 222 255
e 29 126
e 1 27
e 20 77
e 6 142
e 4 69
e 23 82
e 64 83
e 105 121
e 69 198
e 129 249
e 215 252
e 22 86
e 113 241
e 132 254
e 25 128
e 30 206
e 38 67
e 164 206
e 57 80
e 2 144
e 76 93
e 29 247
e 122 209
e 208 249
e 249 250
e 20 198
e 106 201
e 4 190
e 23 203
e 64 204
e 105 242
e 17 129
e 96 193
e 242 247
e 8 80
e 25 249
e 99 198
e 29 139
e 1 40
e 6 155
e 18 209
e 133 196
e 152 209
e 64 96
e 17 250
e 50 198
e 105 134
e 17 21
e 3 86
e 22 99
e 108 139
e 66 142
e 79 81
e 24 145
e 84 196
e 103 209
e 189 212
e 82 86
e 15 96
e 1 161
e 106 214
e 147 215
e 188 253
e 64 217
e 12 27
e 105 255
e 31 40
e 17 142
e 3 207
e 77 156
e 182 209
e 75 83
e 94 96
e 33 86
e 52 99
e 98 215
e 184 255
e 24 37
e 10 102
e 73 158
e 133 209
e 193 223
e 12 148
e 45 96
e 177 215
e 3 99
e 47 105
e 126 169
e 79 94
e 24 158
e 65 159
e 98 107
e 63 86
e 189 225
e 82 99
e 68 164
e 1 174
e 128 215
e 142 150
e 40 102
e 141 154
e 12 40
e 3 220
e 163 209
e 204 210
e 42 148
e 75 96
e 80 174
e 33 99
e 79 215
e 165 218
e 10 115
e 216 220
e 95 159
e 40 223
e 7 46
e 26 59
e 67 97
e 72 175
e 158 215
e 70 102
e 135 231
e 28 105
e 33 220
e 148 170
e 5 121
e 65 172
e 192 213
e 63 99
e 109 215
e 7 167
e 40 115
e 67 218
e 86 231
e 34 41
e 53 54
e 56 59
e 28 226
e 47 239
e 162 226
e 5 242
e 165 231
e 5 13
e 13 103
e 32 116
e 46 51
e 16 108
e 49 56
e 40 236
e 7 59
e 34 162
e 67 110
e 218 242
e 116 231
e 9 105
e 28 118
e 74 234
e 148 183
e 160 237
e 41 57
e 5 134
e 132 175
e 32 237
e 25 49
e 192 226
e 104 113
e 49 177
e 123 126
e 35 242
e 2 65
e 7 180
e 67 231
e 34 54
e 20 119
e 39 132
e 125 172
e 185 186
e 37 59
e 23 124
e 9 226
e 143 189
e 96 114
e 41 178
e 146 231
e 5 255
e 99 119
e 118 132
e 178 183
e 16 121
e 2 186
e 35 134
e 29 60
e 20 240
e 240 243
e 6 76
e 92 116
e 23 245
e 56 193
e 9 118
e 69 132
e 96 235
e 160 250
e 8 122
e 41 70
e 13 237
e 132 188
e 32 250
e 25 62
e 173 189
e 252 253
e 30 140
e 16 242
e 236 245
e 2 78
e 29 181
e 15 17
e 20 132
e 106 135
e 18 22
e 4 124
e 59 60
e 23 137
e 9 239
e 64 138
e 124 189
e 69 253
e 17 63
e 152 251
e 229 242
e 96 127
e 41 191
e 127 194
e 8 14
e 25 183
e 99 132
e 118 145
e 159 183
e 11 19
e 145 248
e 30 32
e 76 148
e 29 73
e 20 253
e 73 79
e 6 89
e 4 245
e 4 16
e 224 248
e 50 132
e 96 248
e 3 20
e 22 33
e 27 148
e 154 189
e 99 253
e 66 76
e 233 253
e 30 153
e 16 255
e 112 192
e 24 79
e 29 194
e 15 30
e 1 95
e 106 148
e 147 149
e 4 137
e 64 151
e 105 189
e 17 76
e 3 141
e 77 90
e 209 246
e 25 196
e 140 146
e 24 200
e 57 148
e 43 213
e 184 189
e 10 36
e 142 192
e 1 216
e 59 194
e 31 95
e 17 197
e 3 33
e 121 254
e 66 89
e 112 205
e 198 208
e 24 92
e 1 108
e 54 200
e 128 149
e 58 90
e 3 154
e 66 210
e 107 211
e 126 224
e 24 213
e 98 162
e 184 202
e 10 49
e 142 205
e 1 229
e 202 219
e 54 92
e 40 157
e 17 210
e 77 224
e 135 165
e 88 90
e 33 154
e 179 208
e 198 221
e 5 55
e 65 106
e 10 170
e 156 224
e 128 162
e 40 49
e 67 152
e 86 165
e 190 222
e 28 160
e 107 224
e 5 176
e 65 227
e 32 50
e 63 154
e 35 55
e 95 106
e 40 170
e 114 119
e 155 157
e 58 224
e 144 227
e 116 165
e 9 39
e 102 230
e 28 52
e 47 65
e 5 68
e 46 106
e 32 171
e 51 184
e 137 224
e 169 176
e 7 114
e 67 165
e 172 181
e 20 53
e 39 66
e 23 58
e 9 160
e 14 238
e 88 224
e 129 225
e 41 112
e 60 125
e 5 189
e 132 230
e 65 240
e 146 165
e 165 178
e 32 63
e 104 168
e 16 55
e 7 235
e 81 184
e 20 174
e 144 240
e 6 10
e 97 128
e 9 52
e 50 53
e 41 233
e 160 184
e 239 248
e 32 184
e 30 74
e 16 176
e 35 189
e 2 12
e 62 63
e 7 127
e 48 128
e 53 243
e 20 66
e 6 131
e 111 184
e 56 248
e 4 58
e 97 249
e 23 71
e 9 173
e 83 122
e 171 235
e 69 187
e 231 249
e 215 241
e 148 251
e 41 125
e 127 128
e 27 190
e 132 243
e 25 117
e 30 195
e 16 68
e 76 82
e 62 184
e 48 249
e 122 198
e 227 251
e 120 125
e 20 187
e 6 252
e 6 23
e 4 179
e 78 128
e 23 192
e 185 254
e 83 243
e 157 192
e 50 66
e 69 79
e 55 144
e 41 246
e 96 182
e 127 249
e 8 69
e 13 184
e 99 187
e 44 251
e 11 74
e 30 87
e 16 189
e 2 254
e 117 241
e 136 254
e 29 128
e 48 141
e 34 243
e 175 182
e 194 195
e 1 29
e 6 144
e 78 249
e 152 198
e 4 71
e 212 249
e 64 85
e 105 123
e 215 254
e 108 128
e 187 192
e 25 130
e 66 131
e 30 208
e 38 69
e 2 146
e 43 147
e 29 249
e 103 198
e 189 201
e 249 252
e 1 150
e 106 203
e 166 254
e 59 128
e 4 192
e 119 142
e 64 206
e 105 244
e 17 131
e 36 144
e 22 209
e 108 249
e 182 198
e 242 249
e 8 82
e 25 251
e 66 252
e 99 200
e 184 244
e 117 254
e 24 26
e 10 91
e 29 141
e 115 144
e 1 42
e 59 249
e 133 198
e 64 98
e 17 252
e 105 136
e 17 23
e 110 214
e 3 88
e 196 254
e 94 206
e 66 144
e 52 209
e 126 158
e 167 196
e 19 32
e 186 209
e 24 147
e 43 160
e 84 198
e 170 201
e 189 214
e 82 88
e 1 163
e 128 204
e 40 91
e 64 219
e 12 29
e 17 144
e 91 93
e 3 209
e 75 85
e 181 215
e 33 88
e 10 104
e 82 209
e 54 147
e 73 160
e 18 224
e 67 86
e 86 99
e 70 91
e 3 101
e 33 209
e 167 209
e 5 110
e 24 160
e 65 161
e 79 96
e 211 215
e 128 217
e 40 104
e 67 207
e 141 156
e 3 222
e 144 161
e 204 212
e 80 176
e 162 215
e 33 101
e 165 220
e 32 105
e 137 158
e 54 160
e 95 161
e 40 225
e 7 48
e 67 99
e 72 177
e 218 231
e 130 155
e 9 94
e 88 158
e 33 222
e 107 171
e 148 172
e 41 46
e 5 123
e 65 174
e 192 215
e 169 231
e 62 105
e 7 169
e 67 220
e 34 43
e 172 236
e 144 174
e 56 61
e 102 177
e 14 64
e 19 179
e 5 244
e 165 233
e 13 105
e 32 118
e 16 110
e 40 238
e 7 61
e 199 231
e 92 105
e 111 118
e 9 107
e 160 239
e 93 249
e 41 59
e 46 174
e 32 239
e 25 51
e 151 190
e 44 64
e 192 228
e 30 129
e 16 231
e 35 244
e 150 231
e 2 67
e 7 182
e 122 132
e 172 249
e 20 121
e 166 175
e 111 239
e 4 113
e 37 61
e 23 126
e 9 228
e 229 231
e 14 77
e 96 116
e 25 172
e 99 121
e 104 236
e 16 123
e 62 239
e 29 62
e 20 242
e 180 231
e 240 245
e 6 78
e 78 183
e 23 247
e 4 5
e 97 196
e 138 234
e 243 250
e 14 198
e 96 237
e 160 252
e 8 124
e 99 242
e 32 252
e 25 64
e 132 190
e 252 255
e 30 142
e 16 244
e 131 194
e 2 80
e 29 183
e 134 236
e 175 237
e 20 134
e 106 137
e 18 24
e 4 126
e 59 62
e 23 139
e 64 140
e 50 242
e 105 178
e 17 65
e 143 204
e 36 78
e 229 244
e 96 129
e 41 193
e 8 16
e 25 185
e 99 134
e 44 198
e 11 21
e 29 75
e 20 255
e 161 194
e 221 245
e 73 81
e 6 91
e 4 247
e 205 237
e 97 209
e 224 250
e 17 186
e 96 250
e 3 22
e 99 255
e 66 78
e 24 81
e 84 132
e 29 196
e 15 32
e 1 97
e 106 150
e 188 189
e 64 153
e 105 191
e 17 78
e 3 143
e 77 92
e 127 209
e 209 248
e 121 135
e 140 148
e 24 202
e 184 191
e 43 215
e 203 204
e 10 38
e 101 156
e 1 218
e 73 94
e 133 145
e 119 210
e 91 148
e 3 35
e 135 154
e 33 143
e 198 210
e 24 94
e 65 95
e 68 100
e 1 110
e 109 138
e 73 215
e 21 25
e 128 151
e 207 215
e 3 156
e 77 105
e 89 159
e 121 148
e 66 212
e 33 35
e 24 215
e 65 216
e 98 164
e 10 51
e 51 52
e 142 207
e 1 231
e 202 221
e 40 159
e 42 205
e 61 218
e 135 167
e 80 231
e 28 41
e 195 218
e 47 54
e 33 156
e 74 157
e 88 92
e 198 223
e 5 57
e 65 108
e 54 215
e 7 103
e 40 51
e 67 154
e 31 231
e 72 232
e 39 55
e 102 111
e 47 175
e 148 227
e 5 178
e 165 167
e 65 229
e 32 52
e 51 65
e 123 170
e 16 44
e 183 221
e 202 234
e 7 224
e 40 172
e 155 159
e 141 224
e 34 98
e 125 216
e 144 229
e 37 103
e 61 231
e 9 41
e 74 170
e 19 234
e 60 235
e 160 173
e 220 224
e 5 70
e 13 160
e 32 173
e 46 108
e 49 113
e 90 114
e 150 165
e 114 242
e 7 116
e 34 219
e 67 167
e 72 245
e 20 55
e 39 68
e 37 224
e 171 224
e 23 60
e 9 162
e 231 238
e 14 240
e 148 240
e 41 114
e 60 127
e 5 191
e 132 232
e 32 65
e 164 184
e 16 57
e 2 122
e 7 237
e 26 250
e 141 237
e 20 176
e 39 189
e 144 242
e 6 12
e 23 181
e 157 181
e 9 54
e 50 55
e 14 132
e 96 171
e 41 235
e 160 186
e 201 224
e 8 58
e 13 173
e 99 176
e 32 186
e 118 189
e 178 240
e 30 76
e 16 178
e 76 192
e 2 14
e 29 117
e 62 65
e 53 245
e 20 68
e 6 133
e 4 60
e 23 73
e 9 175
e 64 74
e 105 112
e 69 189
e 124 125
e 231 251
e 215 243
e 41 127
e 27 192
e 132 245
e 25 119
e 44 132
e 30 197
e 145 184
e 76 84
e 29 238
e 62 186
e 208 240
e 120 127
e 20 189
e 106 192
e 6 254
e 139 140
e 6 25
e 4 181
e 23 194
e 50 68
e 55 146
e 41 248
e 96 184
e 127 251
e 8 71
e 99 189
e 44 253
e 85 254
e 219 254
e 30 89
e 57 192
e 29 130
e 175 184
e 120 248
e 194 197
e 1 31
e 6 146
e 4 73
e 64 87
e 50 189
e 105 125
e 36 254
e 110 203
e 3 77
e 8 192
e 113 245
e 25 132
e 30 210
e 186 198
e 24 136
e 29 251
e 189 203
e 230 241
e 249 254
e 1 152
e 106 205
e 4 194
e 119 144
e 64 208
e 12 18
e 105 246
e 17 133
e 163 187
e 242 251
e 25 253
e 66 254
e 33 77
e 200 254
e 131 154
e 184 246
e 24 28
e 10 93
e 142 249
e 175 197
e 1 44
e 59 251
e 193 214
e 17 254
e 91 203
e 3 90
e 89 93
e 66 146
e 52 211
e 126 160
e 167 198
e 186 211
e 24 149
e 189 216
e 230 254
e 82 90
e 101 103
e 1 165
e 128 206
e 40 93
e 100 144
e 64 221
e 17 146
e 3 211
e 77 160
e 22 224
e 61 152
e 80 165
e 33 90
e 10 106
e 156 160
e 101 224
e 40 214
e 114 163
e 26 50
e 12 152
e 67 88
e 31 165
e 177 219
e 89 106
e 130 144
e 116 209
e 28 96
e 47 109
e 33 211
e 107 160
e 52 224
e 5 112
e 46 150
e 65 163
e 128 219
e 40 106
e 67 209
e 100 157
e 58 160
e 3 224
e 70 214
e 144 163
e 61 165
e 93 117
e 5 233
e 79 219
e 146 209
e 32 107
e 137 160
e 82 224
e 40 227
e 7 50
e 67 101
e 12 165
e 70 106
e 9 96
e 14 174
e 148 174
e 41 48
e 60 61
e 5 125
e 132 166
e 32 228
e 65 176
e 192 217
e 44 53
e 169 233
e 21 106
e 7 171
e 81 120
e 26 184
e 67 222
e 172 238
e 20 110
e 70 227
e 144 176
e 37 50
e 23 115
e 9 217
e 42 165
e 56 63
e 14 66
e 41 169
e 5 246
e 165 235
e 32 120
e 16 112
e 81 241
e 48 64
e 34 166
e 6 67
e 111 120
e 56 184
e 9 109
e 148 187
e 160 241
e 41 61
e 113 166
e 132 179
e 32 241
e 25 53
e 51 254
e 44 66
e 30 131
e 16 233
e 104 117
e 7 184
e 103 121
e 20 123
e 106 126
e 6 188
e 166 177
e 185 190
e 4 115
e 226 228
e 23 128
e 9 230
e 83 179
e 36 67
e 96 118
e 41 182
e 127 185
e 206 249
e 25 174
e 99 123
e 118 136
e 30 252
e 178 187
e 16 125
e 81 254
e 29 64
e 20 244
e 240 247
e 6 80
e 4 236
e 37 184
e 23 249
e 4 7
e 97 198
e 157 249
e 224 239
e 110 137
e 96 239
e 160 254
e 22 24
e 8 126
e 27 139
e 99 244
e 25 66
e 66 67
e 233 244
e 30 144
e 16 246
e 236 249
e 2 82
e 29 185
e 48 198
e 175 239
e 1 86
e 87 126
e 106 139
e 6 201
e 166 190
e 111 254
e 18 26
e 4 128
e 59 64
e 64 142
e 50 244
e 105 180
e 124 193
e 17 67
e 143 206
e 55 93
e 127 198
e 8 18
e 187 249
e 25 187
e 66 188
e 99 136
e 11 23
e 43 204
e 10 27
e 1 207
e 87 247
e 4 249
e 78 198
e 133 134
e 224 252
e 17 188
e 96 252
e 3 24
e 173 206
e 66 80
e 11 144
e 52 145
e 38 247
e 131 209
e 217 249
e 24 83
e 43 96
e 29 198
e 1 99
e 128 140
e 188 191
e 64 155
e 105 193
e 17 80
e 3 145
e 108 198
e 209 250
e 80 99
e 66 201
e 126 215
e 24 204
e 184 193
e 203 206
e 10 40
e 1 220
e 161 209
e 202 210
e 73 96
e 59 198
e 31 99
e 77 215
e 3 37
e 33 145
e 112 209
e 198 212
e 5 46
e 24 96
e 65 97
e 115 214
e 156 215
e 128 153
e 73 217
e 26 105
e 67 143
e 191 209
e 70 148
e 3 158
e 149 212
e 61 99
e 80 112
e 107 215
e 33 37
e 24 217
e 65 218
e 32 41
e 51 54
e 142 209
e 21 148
e 40 161
e 12 99
e 58 215
e 144 218
e 56 105
e 9 30
e 47 56
e 33 158
e 88 94
e 5 59
e 65 110
e 137 215
e 197 229
e 21 40
e 114 231
e 7 105
e 67 156
e 153 159
e 39 57
e 70 161
e 9 151
e 42 99
e 28 164
e 102 113
e 88 215
e 162 164
e 148 229
e 19 115
e 5 180
e 165 169
e 65 231
e 13 41
e 32 54
e 51 67
e 16 46
e 35 59
e 7 226
e 81 175
e 227 229
e 144 231
e 37 105
e 9 43
e 160 175
e 60 237
e 46 110
e 32 175
e 30 65
e 16 167
e 49 115
e 95 231
e 2 3
e 136 232
e 7 118
e 134 159
e 20 57
e 92 162
e 111 175
e 56 239
e 4 49
e 23 62
e 9 164
e 231 240
e 102 126
e 148 242
e 41 116
e 60 129
e 5 193
e 46 231
e 132 234
e 25 108
e 151 247
e 164 186
e 16 59
e 57 60
e 2 124
e 7 239
e 48 240
e 122 189
e 227 242
e 20 178
e 125 231
e 6 14
e 23 183
e 97 132
e 138 170
e 69 70
e 96 173
e 41 237
e 160 188
e 60 250
e 8 60
e 25 229
e 99 178
e 11 65
e 178 242
e 30 78
e 16 180
e 219 243
e 2 16
e 29 119
e 48 132
e 20 70
e 6 135
e 152 189
e 4 62
e 23 75
e 64 76
e 50 178
e 105 114
e 124 127
e 231 253
e 215 245
e 8 181
e 41 129
e 127 132
e 25 121
e 30 199
e 90 250
e 164 199
e 117 124
e 29 240
e 103 189
e 15 76
e 120 129
e 20 191
e 106 194
e 18 81
e 4 183
e 59 119
e 23 196
e 64 197
e 78 132
e 105 235
e 124 248
e 17 122
e 55 148
e 41 250
e 96 186
e 182 189
e 8 73
e 25 242
e 99 191
e 140 192
e 71 129
e 117 245
e 29 132
e 194 199
e 1 33
e 6 148
e 133 189
e 212 253
e 64 89
e 17 243
e 91 192
e 105 127
e 3 79
e 108 132
e 85 148
e 30 212
e 71 250
e 24 138
e 84 189
e 29 253
e 170 192
e 189 205
e 1 154
e 106 207
e 147 208
e 59 132
e 4 196
e 64 210
e 12 20
e 105 248
e 31 33
e 17 135
e 3 200
e 36 148
e 163 189
e 75 76
e 121 192
e 140 205
e 33 79
e 184 248
e 24 30
e 10 95
e 115 148
e 1 46
e 18 215
e 59 253
e 100 254
e 193 216
e 3 92
e 89 95
e 130 133
e 33 200
e 66 148
e 107 149
e 79 87
e 24 151
e 65 152
e 98 100
e 189 218
e 101 105
e 1 167
e 142 143
e 40 95
e 12 33
e 3 213
e 130 254
e 163 202
e 33 92
e 74 93
e 93 106
e 10 108
e 114 165
e 7 39
e 67 90
e 31 167
e 72 168
e 70 95
e 130 146
e 47 111
e 33 213
e 148 163
e 5 114
e 65 165
e 192 206
e 63 92
e 109 208
e 128 221
e 7 160
e 40 108
e 67 211
e 141 160
e 86 224
e 144 165
e 37 39
e 204 216
e 74 106
e 146 211
e 5 235
e 165 224
e 5 6
e 13 96
e 32 109
e 16 101
e 40 229
e 114 178
e 155 216
e 7 52
e 26 65
e 67 103
e 158 221
e 199 222
e 116 224
e 9 98
e 135 237
e 148 176
e 41 50
e 60 63
e 5 127
e 46 165
e 32 230
e 132 168
e 51 243
e 192 219
e 104 106
e 2 58
e 169 235
e 7 173
e 26 186
e 67 224
e 122 123
e 141 173
e 20 112
e 125 165
e 144 178
e 37 52
e 23 117
e 9 219
e 56 65
e 96 107
e 41 171
e 60 184
e 5 248
e 146 224
e 206 238
e 13 109
e 99 112
e 32 122
e 16 114
e 76 128
e 29 53
e 48 66
e 20 233
e 53 181
e 39 246
e 139 184
e 6 69
e 23 238
e 171 173
e 9 111
e 50 112
e 14 189
e 160 243
e 8 115
e 41 63
e 27 128
e 132 181
e 32 243
e 25 55
e 118 246
e 30 133
e 16 235
e 90 184
e 76 249
e 29 174
e 20 125
e 106 128
e 6 190
e 185 192
e 4 117
e 226 230
e 23 130
e 9 232
e 96 120
e 41 184
e 27 249
e 25 176
e 99 125
e 30 254
e 11 12
e 145 241
e 57 128
e 2 192
e 117 179
e 136 192
e 29 66
e 120 184
e 20 246
e 106 249
e 240 249
e 6 82
e 4 238
e 23 251
e 4 9
e 224 241
e 243 254
e 50 125
e 96 241
e 3 13
e 8 128
e 13 243
e 99 246
e 66 69
e 30 146
e 16 248
e 57 249
e 71 184
e 131 198
e 24 72
e 236 251
e 15 23
e 194 254
e 1 88
e 87 128
e 106 141
e 6 203
e 59 66
e 4 130
e 64 144
e 105 182
e 17 69
e 77 83
e 8 249
e 209 239
e 228 252
e 25 189
e 66 190
e 11 254
e 80 88
e 121 126
e 145 254
e 38 128
e 24 193
e 84 244
e 10 29
e 15 144
e 1 209
e 87 249
e 161 198
e 221 249
e 59 187
e 4 251
e 45 252
e 224 254
e 17 190
e 96 254
e 3 26
e 94 144
e 195 196
e 66 82
e 38 249
e 112 198
e 198 201
e 24 85
e 115 203
e 175 254
e 1 101
e 128 142
e 45 144
e 31 209
e 105 195
e 191 198
e 210 211
e 17 82
e 58 83
e 3 147
e 77 96
e 22 160
e 209 252
e 66 203
e 140 152
e 24 206
e 98 155
e 184 195
e 10 42
e 142 198
e 1 222
e 202 212
e 54 85
e 40 150
e 205 254
e 246 255
e 17 203
e 77 217
e 75 144
e 61 209
e 135 158
e 28 32
e 195 209
e 33 147
e 52 160
e 198 214
e 5 48
e 65 99
e 49 91
e 128 155
e 21 29
e 40 42
e 67 145
e 12 209
e 58 96
e 190 215
e 88 204
e 5 169
e 65 220
e 32 43
e 82 160
e 68 225
e 183 212
e 95 99
e 40 163
e 26 228
e 141 215
e 12 101
e 144 220
e 42 209
e 9 32
e 176 209
e 14 110
e 88 96
e 5 61
e 46 99
e 32 164
e 65 112
e 197 231
e 7 107
e 67 158
e 20 46
e 171 215
e 23 51
e 9 153
e 162 166
e 148 231
e 41 105
e 5 182
e 132 223
e 65 233
e 165 171
e 32 56
e 44 110
e 16 48
e 35 61
e 81 177
e 141 228
e 227 231
e 56 120
e 97 121
e 9 45
e 41 226
e 160 177
e 201 215
e 239 241
e 32 177
e 44 231
e 178 231
e 30 67
e 16 169
e 71 105
e 2 5
e 7 120
e 20 59
e 6 124
e 4 51
e 23 64
e 9 166
e 83 115
e 231 242
e 129 231
e 215 234
e 148 244
e 41 118
e 132 236
e 25 110
e 30 188
e 71 226
e 104 174
e 16 61
e 57 62
e 2 126
e 7 241
e 208 231
e 15 65
e 227 244
e 20 180
e 125 233
e 6 16
e 4 172
e 23 185
e 97 134
e 50 59
e 96 175
e 41 239
e 160 190
e 60 252
e 8 62
e 113 115
e 25 231
e 99 180
e 159 231
e 11 67
e 30 80
e 16 182
e 131 132
e 2 18
e 29 121
e 134 174
e 1 22
e 6 137
e 4 64
e 45 65
e 64 78
e 105 116
e 231 255
e 69 193
e 215 247
e 127 134
e 25 123
e 66 124
e 30 201
e 186 189
e 38 62
e 29 242
e 15 78
e 1 143
e 20 193
e 87 183
e 106 196
e 18 83
e 4 185
e 59 121
e 23 198
e 64 199
e 105 237
e 17 124
e 163 178
e 96 188
e 182 191
e 127 255
e 8 75
e 25 244
e 66 245
e 99 193
e 112 132
e 184 237
e 76 209
e 29 134
e 120 252
e 1 35
e 45 78
e 31 143
e 17 245
e 64 91
e 105 129
e 3 81
e 154 250
e 66 137
e 52 202
e 167 189
e 24 140
e 29 255
e 1 156
e 106 209
e 40 84
e 59 134
e 119 148
e 64 212
e 191 253
e 17 137
e 3 202
e 22 215
e 75 78
e 140 207
e 33 81
e 52 94
e 93 95
e 184 250
e 10 97
e 101 215
e 155 192
e 174 205
e 26 41
e 67 79
e 86 92
e 91 207
e 177 210
e 3 94
e 130 135
e 33 202
e 52 215
e 24 153
e 65 154
e 128 210
e 21 84
e 40 97
e 26 162
e 45 212
e 100 148
e 141 149
e 3 215
e 144 154
e 204 205
e 42 143
e 80 169
e 33 94
e 165 213
e 98 223
e 32 98
e 137 151
e 40 218
e 7 41
e 67 92
e 12 156
e 86 105
e 218 224
e 130 148
e 9 87
e 33 215
e 148 165
e 93 229
e 19 51
e 5 116
e 65 167
e 10 231
e 192 208
e 169 224
e 7 162
e 67 213
e 34 36
e 125 154
e 144 167
e 89 231
e 37 41
e 5 237
e 165 226
e 32 111
e 63 215
e 16 103
e 40 231
e 136 168
e 7 54
e 48 55
e 9 100
e 148 178
e 160 232
e 41 52
e 60 65
e 5 129
e 132 170
e 32 232
e 25 44
e 51 245
e 151 183
e 192 221
e 104 108
e 16 224
e 150 224
e 2 60
e 7 175
e 48 176
e 67 226
e 122 125
e 20 114
e 70 231
e 23 119
e 9 221
e 83 170
e 102 183
e 143 184
e 96 109
e 41 173
e 5 250
e 25 165
e 99 114
e 118 127
e 159 165
e 16 116
e 29 55
e 20 235
e 180 224
e 6 71
e 78 176
e 23 240
e 97 189
e 138 227
e 50 114
e 69 127
e 110 128
e 96 230
e 160 245
e 8 117
e 41 65
e 99 235
e 32 245
e 25 57
e 132 183
e 44 70
e 173 184
e 30 135
e 16 237
e 90 186
e 2 73
e 29 176
e 48 189
e 134 229
e 20 127
e 106 130
e 6 192
e 4 119
e 23 132
e 9 234
e 64 133
e 105 171
e 69 248
e 17 58
e 124 184
e 36 71
e 55 84
e 41 186
e 96 122
e 27 251
e 8 9
e 127 189
e 25 178
e 99 127
e 85 192
e 11 14
e 2 194
e 117 181
e 29 68
e 20 248
e 106 251
e 73 74
e 6 84
e 4 240
e 78 189
e 23 253
e 64 254
e 224 243
e 17 179
e 91 128
e 36 192
e 96 243
e 3 15
e 182 246
e 22 28
e 154 184
e 99 248
e 66 71
e 30 148
e 217 240
e 24 74
e 84 125
e 29 189
e 115 192
e 15 254
e 15 25
e 1 90
e 106 143
e 6 205
e 18 30
e 64 146
e 105 184
e 91 249
e 17 71
e 3 136
e 77 85
e 108 189
e 94 254
e 168 203
e 209 241
e 228 254
e 80 90
e 66 192
e 121 128
e 140 141
e 24 195
e 98 144
e 10 31
e 1 211
e 161 200
e 73 87
e 59 189
e 4 253
e 45 254
e 12 77
e 17 192
e 3 28
e 121 249
e 195 198
e 33 136
e 66 84
e 112 200
e 198 203
e 24 87
e 65 88
e 68 93
e 1 103
e 128 144
e 12 198
e 210 213
e 3 149
e 75 254
e 209 254
e 66 205
e 107 206
e 126 219
e 79 144
e 24 208
e 65 209
e 184 197
e 10 44
e 1 224
e 40 152
e 72 104
e 42 198
e 116 147
e 135 160
e 80 224
e 176 198
e 195 211
e 33 149
e 198 216
e 5 50
e 65 101
e 10 165
e 68 106
e 95 209
e 128 157
e 21 31
e 7 96
e 40 44
e 67 147
e 86 160
e 31 224
e 39 48
e 89 165
e 148 220
e 19 106
e 146 147
e 5 171
e 65 222
e 13 32
e 32 45
e 51 58
e 49 214
e 104 150
e 16 37
e 35 50
e 202 227
e 40 165
e 125 209
e 144 222
e 37 96
e 42 211
e 116 160
e 61 224
e 9 34
e 176 211
e 5 63
e 32 166
e 51 179
e 49 106
e 7 109
e 134 150
e 26 122
e 67 160
e 213 214
e 20 48
e 70 165
e 23 53
e 9 155
e 14 233
e 148 233
e 41 107
e 146 160
e 5 184
e 132 225
e 13 45
e 32 58
e 16 50
e 2 115
e 20 169
e 53 117
e 144 235
e 23 174
e 56 122
e 9 47
e 143 239
e 41 228
e 160 179
e 201 217
e 8 51
e 27 64
e 32 179
e 118 182
e 159 220
e 30 69
e 16 171
e 35 184
e 2 7
e 29 110
e 153 176
e 20 61
e 6 126
e 4 53
e 212 231
e 23 66
e 9 168
e 64 67
e 231 244
e 215 236
e 41 120
e 113 225
e 132 238
e 173 239
e 25 112
e 30 190
e 145 177
e 57 64
e 2 128
e 76 77
e 15 67
e 20 182
e 106 185
e 6 247
e 6 18
e 4 174
e 185 249
e 23 187
e 83 238
e 96 177
e 41 241
e 8 64
e 113 117
e 99 182
e 30 82
e 16 184
e 57 185
e 2 249
e 76 198
e 112 121
e 131 134
e 136 249
e 29 123
e 48 136
e 175 177
e 139 254
e 1 24
e 6 139
e 59 231
e 4 66
e 45 67
e 212 244
e 64 80
e 50 182
e 105 118
e 196 236
e 3 70
e 215 249
e 108 123
e 27 198
e 25 125
e 66 126
e 30 203
e 186 191
e 38 64
e 24 129
e 43 142
e 29 244
e 84 180
e 189 196
e 1 145
e 106 198
e 59 123
e 4 187
e 78 136
e 119 137
e 64 201
e 105 239
e 124 252
e 17 126
e 163 180
e 242 244
e 25 246
e 66 247
e 99 195
e 33 70
e 57 198
e 98 199
e 131 147
e 184 239
e 10 86
e 15 201
e 175 190
e 1 37
e 105 131
e 17 247
e 110 209
e 196 249
e 3 83
e 237 250
e 22 96
e 8 198
e 66 139
e 11 203
e 107 140
e 126 153
e 167 191
e 19 27
e 24 142
e 189 209
e 230 247
e 82 83
e 1 158
e 87 198
e 128 199
e 40 86
e 64 214
e 12 24
e 105 252
e 191 255
e 17 139
e 3 204
e 121 196
e 140 209
e 33 83
e 19 148
e 38 198
e 52 96
e 184 252
e 10 99
e 137 140
e 54 142
e 40 207
e 67 81
e 193 220
e 86 94
e 72 159
e 91 209
e 70 86
e 89 99
e 149 150
e 135 215
e 33 204
e 19 40
e 5 105
e 79 91
e 65 156
e 170 209
e 49 148
e 82 96
e 21 86
e 40 99
e 67 202
e 86 215
e 12 37
e 3 217
e 144 156
e 204 207
e 102 159
e 14 46
e 181 223
e 5 226
e 165 215
e 32 100
e 51 113
e 35 105
e 40 220
e 7 43
e 67 94
e 70 99
e 130 150
e 116 215
e 9 89
e 33 217
e 74 218
e 148 167
e 93 231
e 5 118
e 132 159
e 32 221
e 65 169
e 192 210
e 44 46
e 49 161
e 150 213
e 21 99
e 7 164
e 81 113
e 67 215
e 141 164
e 153 218
e 34 38
e 172 231
e 144 169
e 9 210
e 41 162
e 146 215
e 5 239
e 165 228
e 13 100
e 32 113
e 51 126
e 123 231
e 16 105
e 7 56
e 48 57
e 34 159
e 6 60
e 111 113
e 116 228
e 9 102
e 74 231
e 148 180
e 160 234
e 41 54
e 60 67
e 132 172
e 32 234
e 25 46
e 192 223
e 44 59
e 30 124
e 16 226
e 104 110
e 2 62
e 7 177
e 122 127
e 153 231
e 34 51
e 20 116
e 4 108
e 37 56
e 23 121
e 9 223
e 124 173
e 36 60
e 96 111
e 41 175
e 60 188
e 25 167
e 99 116
e 30 245
e 104 231
e 178 180
e 16 118
e 76 132
e 29 57
e 120 175
e 20 237
e 6 73
e 4 229
e 37 177
e 23 242
e 243 245
e 96 232
e 160 247
e 8 119
e 27 132
e 13 234
e 99 237
e 173 186
e 25 59
e 233 237
e 30 137
e 16 239
e 131 189
e 236 242
e 2 75
e 29 178
e 103 127
e 134 231
e 1 79
e 87 119
e 106 132
e 6 194
e 166 183
e 18 19
e 4 121
e 152 248
e 23 134
e 64 135
e 105 173
e 124 186
e 17 60
e 96 124
e 127 191
e 8 11
e 228 243
e 25 180
e 66 181
e 11 245
e 99 129
e 11 16
e 57 132
e 2 196
e 10 20
e 29 70
e 20 250
e 161 189
e 73 76
e 4 242
e 23 255
e 119 192
e 224 245
e 17 181
e 96 245
e 3 17
e 22 30
e 8 132
e 154 186
e 99 250
e 173 199
e 66 73
e 85 86
e 112 189
e 24 76
e 29 191
e 1 92
e 87 132
e 128 133
e 64 148
e 105 186
e 91 251
e 17 73
e 3 138
e 149 192
e 209 243
e 66 194
e 140 143
e 38 132
e 24 197
e 184 186
e 43 210
e 10 33
e 15 148
e 142 189
e 1 213
e 202 203
e 73 89
e 59 191
e 100 192
e 12 79
e 31 92
e 17 194
e 58 195
e 3 30
e 94 148
e 33 138
e 179 192
e 79 254
e 198 205
e 24 89
e 65 90
e 10 154
e 128 146
e 3 151
e 77 100
e 130 192
e 80 105
e 24 210
e 65 211
e 32 34
e 1 226
e 35 39
e 40 154
e 141 206
e 72 106
e 144 211
e 77 221
e 9 23
e 47 49
e 33 151
e 93 165
e 198 218
e 5 52
e 65 103
e 156 221
e 68 108
e 21 33
e 114 224
e 7 98
e 89 167
e 102 106
e 148 222
e 146 149
e 5 173
e 65 224
e 32 47
e 16 39
e 35 52
e 7 219
e 40 167
e 81 168
e 53 106
e 144 224
e 9 36
e 74 165
e 160 168
e 201 206
e 32 168
e 16 160
e 150 160
e 95 224
e 136 225
e 169 173
e 7 111
e 48 112
e 134 152
e 172 178
e 72 240
e 20 50
e 39 63
e 37 219
e 4 42
e 23 55
e 9 157
e 83 106
e 231 233
e 102 119
e 148 235
e 41 109
e 5 186
e 46 224
e 25 101
e 104 165
e 164 179
e 16 52
e 2 117
e 7 232
e 34 106
e 20 171
e 39 184
e 125 224
e 6 7
e 23 176
e 138 163
e 55 128
e 41 230
e 96 166
e 160 181
e 8 53
e 27 66
e 13 168
e 99 171
e 32 181
e 118 184
e 159 222
e 30 71
e 16 173
e 90 122
e 117 225
e 2 9
e 29 112
e 134 165
e 20 63
e 6 128
e 4 55
e 23 68
e 9 170
e 64 69
e 105 107
e 69 184
e 231 246
e 55 249
e 129 235
e 215 238
e 41 122
e 27 187
e 132 240
e 25 114
e 11 179
e 85 128
e 30 192
e 164 192
e 57 66
e 2 130
e 76 79
e 29 233
e 103 182
e 48 246
e 120 122
e 20 184
e 106 187
e 6 249
e 6 20
e 4 176
e 185 251
e 23 189
e 64 190
e 105 228
e 17 115
e 143 254
e 96 179
e 41 243
e 8 66
e 25 235
e 99 184
e 85 249
e 219 249
e 2 251
e 76 200
e 222 254
e 29 125
e 115 128
e 1 26
e 6 141
e 18 195
e 78 246
e 64 82
e 50 184
e 105 120
e 36 249
e 110 198
e 124 133
e 3 72
e 215 251
e 22 85
e 108 125
e 173 254
e 66 128
e 11 192
e 30 205
e 112 244
e 38 66
e 24 131
e 43 144
e 29 246
e 115 249
e 189 198
e 1 147
e 106 200
e 4 189
e 64 203
e 12 13
e 105 241
e 124 254
e 17 128
e 3 193
e 242 246
e 121 185
e 66 249
e 140 198
e 33 72
e 200 249
e 24 252
e 184 241
e 203 254
e 10 88
e 1 39
e 73 144
e 174 196
e 193 209
e 17 249
e 91 198
e 110 211
e 237 252
e 3 85
e 154 254
e 33 193
e 66 141
e 19 29
e 24 144
e 10 209
e 170 198
e 189 211
e 230 249
e 82 85
e 1 160
e 128 201
e 188 252
e 40 88
e 3 206
e 89 209
e 75 82
e 80 160
e 121 198
e 33 85
e 93 99
e 184 254
e 225 255
e 10 101
e 63 193
e 137 142
e 54 144
e 40 209
e 7 32
e 174 209
e 67 83
e 86 96
e 31 160
e 70 88
e 130 139
e 75 203
e 116 204
e 33 206
e 148 156
e 5 107
e 65 158
e 211 212
e 63 85
e 68 163
e 128 214
e 169 215
e 7 153
e 40 101
e 67 204
e 70 209
e 144 158
e 204 209
e 74 99
e 5 228
e 165 217
e 32 102
e 51 115
e 21 209
e 40 222
e 155 209
e 7 45
e 26 58
e 34 148
e 53 161
e 67 96
e 199 215
e 9 91
e 129 156
e 41 43
e 5 120
e 32 223
e 192 212
e 150 215
e 2 51
e 7 166
e 67 217
e 34 40
e 20 105
e 144 171
e 37 45
e 23 110
e 9 212
e 56 58
e 143 175
e 162 225
e 55 62
e 41 164
e 96 100
e 5 241
e 165 230
e 206 231
e 32 115
e 16 107
e 81 236
e 29 46
e 20 226
e 180 215
e 6 62
e 23 231
e 9 104
e 50 105
e 14 182
e 129 169
e 160 236
e 41 56
e 132 174
e 32 236
e 25 48
e 44 61
e 30 126
e 16 228
e 2 64
e 29 167
e 48 180
e 194 234
e 20 118
e 106 121
e 6 183
e 4 110
e 23 123
e 9 225
e 96 113
e 41 177
e 25 169
e 99 118
e 16 120
e 57 121
e 29 59
e 122 250
e 20 239
e 106 242
e 6 75
e 4 231
e 23 244
e 97 193
e 138 231
e 157 244
e 224 234
e 50 118
e 243 247
e 69 131
e 110 132
e 96 234
e 3 6
e 160 249
e 8 121
e 99 239
e 173 188
e 25 61
e 233 239
e 30 139
e 16 241
e 217 231
e 24 65
e 236 244
e 84 116
e 15 16
e 1 81
e 106 134
e 6 196
e 18 21
e 4 123
e 64 137
e 105 175
e 124 188
e 17 62
e 168 194
e 228 245
e 25 182
e 66 183
e 80 81
e 186 248
e 10 22
e 189 253
e 1 202
e 87 242
e 106 255
e 54 65
e 161 191
e 73 78
e 4 244
e 224 247
e 17 183
e 91 132
e 36 196
e 96 247
e 3 19
e 22 32
e 94 137
e 99 252
e 66 75
e 11 139
e 52 140
e 57 255
e 24 78
e 216 248
e 1 94
e 87 134
e 128 135
e 147 148
e 64 150
e 105 188
e 17 75
e 3 140
e 77 89
e 209 245
e 121 132
e 66 196
e 140 145
e 24 199
e 98 148
e 184 188
e 10 35
e 1 215
e 202 205
e 40 143
e 119 207
e 31 94
e 17 196
e 72 95
e 135 151
e 80 215
e 121 253
e 176 189
e 195 202
e 33 140
e 214 215
e 198 207
e 5 41
e 65 92
e 128 148
e 21 22
e 155 251
e 67 138
e 12 202
e 31 215
e 58 89
e 3 153
e 130 194
e 61 94
e 5 162
e 79 148
e 65 213
e 32 36
e 35 41
e 202 218
e 40 156
e 53 95
e 144 213
e 42 202
e 61 215
e 9 25
e 14 103
e 33 153
e 88 89
e 5 54
e 32 157
e 65 105
e 156 223
e 197 224
e 109 148
e 114 226
e 7 100
e 12 215
e 153 154
e 20 39
e 190 221
e 9 146
e 102 108
e 148 224
e 41 98
e 146 151
e 5 175
e 132 216
e 65 226
e 13 36
e 32 49
e 68 231
e 16 41
e 95 105
e 7 221
e 144 226
e 37 100
e 42 215
e 157 165
e 9 38
e 19 231
e 160 170
e 201 208
e 220 221
e 13 157
e 32 170
e 51 183
e 178 224
e 30 60
e 16 162
e 197 237
e 95 226
e 7 113
e 48 114
e 139 232
e 20 52
e 6 117
e 39 65
e 4 44
e 23 57
e 9 159
e 231 235
e 129 224
e 215 227
e 148 237
e 41 111
e 60 124
e 132 229
e 25 103
e 30 181
e 164 181
e 16 54
e 2 119
e 62 170
e 7 234
e 122 184
e 208 224
e 20 173
e 6 9
e 4 165
e 23 178
e 97 127
e 138 165
e 50 52
e 96 168
e 41 232
e 160 183
e 201 221
e 8 55
e 25 224
e 99 173
e 159 224
e 30 73
e 16 175
e 71 111
e 76 189
e 2 11
e 29 114
e 134 167
e 120 232
e 1 15
e 6 130
e 78 235
e 152 184
e 4 57
e 64 71
e 105 109
e 231 248
e 215 240
e 108 114
e 8 176
e 27 189
e 113 229
e 25 116
e 66 117
e 85 130
e 30 194
e 38 55
e 2 132
e 117 119
e 29 235
e 103 184
e 87 176
e 20 186
e 106 189
e 6 251
e 120 124
e 4 178
e 78 127
e 23 191
e 64 192
e 105 230
e 119 128
e 17 117
e 55 143
e 41 245
e 96 181
e 182 184
e 8 68
e 25 237
e 99 186
e 11 73
e 219 251
e 57 189
e 131 138
e 43 254
e 184 230
e 29 127
e 15 192
e 1 28
e 18 197
e 133 184
e 193 198
e 45 71
e 64 84
e 17 238
e 91 187
e 105 122
e 3 74
e 22 87
e 8 189
e 94 192
e 154 243
e 66 130
e 126 144
e 167 182
e 24 133
e 84 184
e 29 248
e 170 187
e 189 200
e 249 251
e 1 149
e 87 189
e 73 254
e 106 202
e 207 254
e 45 192
e 64 205
e 12 15
e 105 243
e 17 130
e 3 195
e 77 144
e 22 208
e 108 248
e 163 184
e 66 251
e 33 74
e 52 87
e 38 189
e 24 254
e 184 243
e 24 25
e 10 90
e 18 210
e 100 249
e 133 197
e 174 198
e 67 72
e 12 136
e 17 251
e 237 254
e 3 87
e 89 90
e 75 192
e 33 195
e 107 144
e 179 249
e 186 208
e 79 82
e 24 146
e 189 213
e 230 251
e 82 87
e 54 254
e 128 203
e 188 254
e 40 90
e 45 205
e 141 142
e 12 28
e 58 144
e 3 208
e 130 249
e 144 147
e 181 214
e 33 87
e 79 203
e 165 206
e 10 103
e 137 144
e 156 157
e 101 221
e 21 198
e 40 211
e 114 160
e 155 198
e 7 34
e 67 85
e 28 93
e 47 106
e 33 208
e 74 209
e 88 144
e 148 158
e 5 109
e 46 147
e 65 160
e 10 224
e 192 201
e 211 214
e 68 165
e 128 216
e 7 155
e 40 103
e 67 206
e 144 160
e 19 165
e 5 230
e 165 219
e 32 104
e 51 117
e 104 209
e 16 96
e 21 211
e 95 160
e 40 224
e 136 161
e 7 47
e 199 217
e 56 168
e 157 220
e 9 93
e 28 106
e 14 171
e 74 222
e 148 171
e 160 225
e 41 45
e 113 150
e 5 122
e 46 160
e 132 163
e 25 37
e 192 214
e 44 50
e 16 217
e 49 165
e 2 53
e 7 168
e 134 209
e 67 219
e 34 42
e 20 107
e 125 160
e 70 224
e 37 47
e 23 112
e 9 214
e 55 64
e 41 166
e 96 102
e 5 243
e 25 158
e 99 107
e 32 117
e 123 235
e 16 109
e 29 48
e 20 228
e 6 64
e 78 169
e 23 233
e 97 182
e 14 184
e 96 223
e 160 238
e 8 110
e 41 58
e 27 123
e 132 176
e 32 238
e 25 50
e 30 128
e 16 230
e 217 220
e 76 244
e 2 66
e 43 67
e 103 118
e 122 131
e 20 120
e 106 123
e 6 185
e 92 225
e 4 112
e 23 125
e 9 227
e 64 126
e 105 164
e 17 51
e 229 230
e 36 64
e 96 115
e 8 231
e 41 179
e 25 171
e 99 120
e 11 236
e 44 184
e 30 249
e 164 249
e 57 123
e 29 61
e 20 241
e 106 244
e 221 231
e 240 244
e 6 77
e 4 233
e 23 246
e 64 247
e 138 233
e 224 236
e 243 249
e 55 198
e 3 8
e 96 236
e 8 123
e 94 126
e 99 241
e 118 254
e 233 241
e 11 128
e 30 141
e 131 193
e 24 67
e 29 182
e 175 236
e 15 18
e 194 249
e 1 83
e 235 250
e 106 136
e 6 198
e 133 239
e 18 23
e 4 125
e 59 61
e 64 139
e 17 64
e 3 129
e 36 77
e 77 78
e 209 234
e 80 83
e 66 185
e 11 249
e 145 249
e 186 250
e 10 24
e 189 255
e 15 139
e 1 204
e 161 193
e 54 67
e 221 244
e 73 80
e 18 144
e 4 246
e 205 236
e 224 249
e 17 185
e 3 250
e 36 198
e 3 21
e 33 129
e 66 77
e 24 80
e 65 81
e 115 198
e 175 249
e 1 96
e 128 137
e 73 201
e 147 150
e 58 78
e 3 142
e 168 209
e 209 247
e 80 96
e 33 250
e 66 198
e 79 137
e 24 201
e 184 190
e 10 37
e 101 155
e 1 217
e 202 207
e 100 196
e 119 209
e 205 249
e 31 96
e 72 97
e 75 139
e 135 153
e 33 142
e 198 209
e 5 43
e 65 94
e 10 158
e 68 99
e 128 150
e 21 24
e 114 215
e 7 89
e 67 140
e 12 204
e 31 217
e 70 145
e 149 209
e 28 148
e 61 96
e 234 253
e 19 99
e 65 215
e 13 25
e 32 38
e 49 207
e 123 156
e 35 43
e 21 145
e 40 158
e 144 215
e 9 27
e 135 166
e 28 40
e 14 105
e 88 91
e 179 209
e 5 56
e 32 159
e 49 99
e 150 151
e 95 215
e 7 102
e 26 115
e 67 153
e 153 156
e 72 231
e 20 41
e 39 54
e 56 223
e 23 46
e 9 148
e 28 161
e 102 110
e 148 226
e 41 100
e 5 177
e 46 215
e 65 228
e 132 218
e 151 231
e 32 51
e 44 105
e 165 166
e 16 43
e 2 108
e 7 223
e 208 213
e 34 97
e 20 162
e 125 215
e 144 228
e 37 102
e 23 167
e 138 154
e 9 40
e 102 231
e 55 119
e 41 221
e 160 172
e 220 223
e 32 172
e 30 62
e 16 164
e 76 178
e 29 103
e 53 231
e 20 54
e 6 119
e 39 67
e 4 46
e 212 224
e 23 59
e 9 161
e 50 162
e 231 237
e 129 226
e 215 229
e 41 113
e 132 231
e 25 105
e 30 183
e 38 44
e 2 121
e 7 236
e 122 186
e 20 175
e 106 178
e 6 240
e 166 229
e 6 11
e 4 167
e 18 65
e 23 180
e 78 116
e 83 231
e 97 129
e 124 232
e 50 54
e 55 132
e 41 234
e 96 170
e 160 185
e 25 226
e 99 175
e 30 75
e 16 177
e 112 114
e 117 229
e 29 116
e 115 119
e 1 17
e 6 132
e 133 173
e 4 59
e 45 60
e 64 73
e 105 111
e 69 188
e 110 189
e 196 229
e 215 242
e 108 116
e 127 129
e 113 231
e 25 118
e 66 119
e 85 132
e 30 196
e 24 122
e 84 173
e 29 237
e 122 199
e 1 138
e 106 191
e 6 253
e 4 180
e 64 194
e 105 232
e 17 119
e 36 132
e 96 183
e 25 239
e 66 240
e 99 188
e 140 189
e 11 75
e 38 178
e 98 192
e 184 232
e 10 79
e 175 183
e 1 30
e 193 200
e 64 86
e 17 240
e 105 124
e 237 243
e 3 76
e 75 181
e 66 132
e 167 184
e 19 20
e 24 135
e 43 148
e 29 250
e 170 189
e 189 202
e 249 253
e 1 151
e 128 192
e 40 79
e 64 207
e 12 17
e 105 245
e 17 132
e 3 197
e 163 186
e 121 189
e 66 253
e 33 76
e 79 192
e 184 245
e 225 246
e 10 92
e 40 200
e 73 148
e 114 149
e 155 187
e 67 74
e 193 213
e 86 87
e 17 253
e 58 254
e 158 192
e 70 79
e 3 89
e 89 92
e 33 197
e 107 146
e 19 33
e 5 98
e 65 149
e 170 202
e 109 192
e 128 205
e 40 92
e 67 195
e 141 144
e 12 30
e 3 210
e 144 149
e 42 138
e 102 152
e 88 254
e 162 203
e 14 39
e 33 89
e 74 90
e 165 208
e 32 93
e 51 106
e 82 210
e 156 159
e 35 98
e 40 213
e 7 36
e 67 87
e 72 165
e 218 219
e 56 157
e 89 105
e 9 82
e 28 95
e 47 108
e 33 210
e 148 160
e 93 224
e 5 111
e 132 152
e 32 214
e 65 162
e 151 165
e 192 203
e 109 205
e 62 93
e 7 157
e 81 106
e 67 208
e 172 224
e 144 162
e 204 213
e 9 203
e 42 151
e 60 168
e 5 232
e 146 208
e 165 221
e 206 222
e 32 106
e 123 224
e 16 98
e 21 213
e 7 49
e 48 50
e 53 165
e 6 53
e 37 157
e 92 93
e 157 222
e 9 95
e 69 109
e 129 160
e 74 224
e 148 173
e 160 227
e 41 47
e 132 165
e 32 227
e 25 39
e 118 230
e 44 52
e 192 216
e 30 117
e 16 219
e 2 55
e 169 232
e 62 106
e 7 170
e 74 98
e 172 237
e 20 109
e 4 101
e 37 49
e 23 114
e 9 216
e 83 165
e 28 229
e 36 53
e 55 66
e 41 168
e 96 104
e 13 106
e 25 160
e 99 109
e 159 160
e 104 224
e 16 111
e 29 50
e 34 165
e 20 230
e 6 66
e 4 222
e 92 106
e 23 235
e 97 184
e 111 119
e 96 225
e 160 240
e 8 112
e 113 165
e 99 230
e 173 179
e 25 52
e 30 130
e 16 232
e 217 222
e 29 171
e 48 184
e 134 224
e 1 72
e 20 122
e 106 125
e 6 187
e 152 241
e 4 114
e 226 227
e 23 127
e 64 128
e 105 166
e 17 53
e 143 192
e 36 66
e 96 117
e 127 184
e 25 173
e 99 122
e 30 251
e 2 189
e 76 138
e 29 63
e 122 254
e 15 128
e 20 243
e 106 246
e 161 182
e 240 246
e 59 171
e 4 235
e 78 184
e 23 248
e 64 249
e 224 238
e 17 174
e 91 123
e 96 238
e 3 10
e 22 23
e 8 125
e 94 128
e 154 179
e 99 243
e 173 192
e 112 182
e 24 69
e 29 184
e 15 249
e 175 238
e 235 252
e 1 85
e 106 138
e 6 200
e 18 254
e 59 63
e 152 254
e 45 128
e 64 141
e 105 179
e 17 66
e 58 67
e 3 131
e 77 80
e 22 144
e 8 246
e 94 249
e 168 198
e 209 236
e 228 249
e 80 85
e 66 187
e 121 123
e 24 190
e 43 203
e 84 241
e 103 254
e 10 26
e 82 131
e 101 144
e 1 206
e 18 146
e 59 184
e 45 249
e 119 198
e 224 251
e 17 187
e 3 252
e 77 201
e 3 23
e 182 254
e 75 128
e 223 255
e 135 142
e 176 180
e 33 131
e 52 144
e 79 247
e 24 82
e 65 83
e 128 139
e 133 254
e 45 141
e 31 206
e 58 80
e 3 144
e 77 93
e 75 249
e 209 249
e 33 252
e 24 203
e 65 204
e 10 39
e 82 144
e 68 209
e 1 219
e 202 209
e 40 147
e 100 198
e 53 86
e 72 99
e 56 91
e 75 141
e 28 29
e 33 144
e 19 209
e 179 198
e 198 211
e 5 45
e 65 96
e 10 160
e 137 201
e 49 88
e 68 101
e 128 152
e 7 91
e 67 142
e 72 220
e 89 160
e 130 198
e 83 86
e 107 214
e 148 215
e 65 217
e 32 40
e 63 144
e 51 53
e 49 209
e 104 145
e 16 32
e 183 209
e 95 96
e 7 212
e 40 160
e 53 99
e 144 217
e 9 29
e 160 161
e 5 58
e 13 148
e 46 96
e 178 215
e 197 228
e 114 230
e 7 104
e 48 105
e 67 155
e 134 145
e 153 158
e 20 43
e 70 160
e 23 48
e 9 150
e 83 99
e 129 215
e 148 228
e 41 102
e 146 155
e 5 179
e 132 220
e 13 40
e 25 94
e 16 45
e 2 110
e 35 58
e 208 215
e 34 99
e 20 164
e 185 231
e 78 105
e 23 169
e 97 118
e 96 159
e 41 223
e 160 174
e 201 212
e 8 46
e 27 59
e 99 164
e 32 174
e 159 215
e 30 64
e 16 166
e 71 102
e 2 231
e 35 179
e 90 115
e 136 231
e 29 105
e 134 158
e 34 220
e 20 56
e 6 121
e 4 48
e 23 61
e 9 163
e 231 239
e 196 218
e 215 231
e 41 115
e 132 233
e 25 107
e 30 185
e 38 46
e 164 185
e 57 59
e 2 123
e 29 226
e 62 174
e 122 188
e 20 177
e 6 242
e 166 231
e 6 13
e 4 169
e 18 67
e 23 182
e 59 105
e 64 183
e 17 108
e 50 56
e 96 172
e 41 236
e 127 239
e 8 59
e 25 228
e 99 177
e 11 64
e 219 242
e 30 77
e 112 116
e 117 231
e 203 234
e 29 118
e 115 121
e 15 183
e 120 236
e 139 249
e 1 19
e 6 134
e 4 61
e 64 75
e 105 113
e 124 126
e 110 191
e 196 231
e 3 65
e 215 244
e 66 121
e 30 198
e 126 135
e 38 59
e 24 124
e 29 239
e 189 191
e 1 140
e 106 193
e 6 255
e 18 80
e 4 182
e 119 132
e 64 196
e 105 234
e 210 250
e 17 121
e 3 186
e 22 199
e 25 241
e 66 242
e 33 65
e 24 245
e 98 194
e 184 234
e 10 81
e 142 237
e 1 32
e 73 137
e 174 189
e 17 242
e 237 245
e 3 78
e 33 186
e 66 134
e 126 148
e 167 186
e 19 22
e 198 253
e 24 137
e 10 202
e 63 65
e 189 204
e 230 242
e 1 153
e 128 194
e 40 81
e 100 132
e 31 32
e 58 135
e 3 199
e 77 148
e 108 252
e 121 191
e 66 255
e 140 204
e 33 78
e 184 247
e 10 94
e 40 202
e 155 189
e 7 25
e 67 76
e 12 140
e 193 215
e 17 255
e 70 81
e 89 94
e 130 132
e 107 148
e 52 212
e 148 149
e 167 199
e 5 100
e 65 151
e 10 215
e 82 91
e 128 207
e 40 94
e 67 197
e 58 148
e 144 151
e 89 215
e 28 205
e 14 41
e 93 105
e 5 221
e 79 207
e 165 210
e 32 95
e 137 148
e 40 215
e 7 38
e 26 51
e 67 89
e 199 208
e 218 221
e 70 94
e 9 84
e 47 110
e 88 148
e 129 149
e 148 162
e 5 113
e 132 154
e 32 216
e 192 205
e 211 218
e 35 221
e 2 44
e 7 159
e 67 210
e 20 98
e 70 215
e 144 164
e 37 38
e 23 103
e 9 205
e 28 218
e 47 231
e 74 105
e 146 210
e 5 234
e 165 223
e 206 224
e 32 108
e 104 213
e 16 100
e 21 215
e 136 165
e 29 39
e 48 52
e 34 154
e 20 219
e 139 170
e 6 55
e 92 95
e 56 172
e 157 224
e 9 97
e 160 229
e 41 49
e 27 114
e 132 167
e 32 229
e 25 41
e 192 218
e 30 119
e 16 221
e 2 57
e 7 172
e 103 109
e 194 227
e 20 111
e 106 114
e 6 176
e 92 216
e 4 103
e 23 116
e 9 218
e 96 106
e 41 170
e 187 224
e 25 162
e 99 111
e 118 124
e 16 113
e 117 165
e 29 52
e 48 65
e 20 232
e 106 235
e 180 221
e 221 222
e 6 68
e 4 224
e 23 237
e 138 224
e 224 227
e 36 176
e 55 189
e 160 242
e 8 114
e 99 232
e 173 181
e 25 54
e 30 132
e 16 234
e 131 184
e 217 224
e 24 58
e 236 237
e 29 173
e 103 122
e 1 74
e 106 127
e 6 189
e 133 230
e 166 178
e 4 116
e 64 130
e 105 168
e 17 55
e 36 68
e 96 119
e 25 175
e 66 176
e 99 124
e 85 189
e 2 191
e 43 192
e 98 128
e 103 243
e 10 15
e 189 246
e 101 133
e 1 195
e 161 184
e 106 248
e 4 237
e 64 251
e 224 240
e 17 176
e 36 189
e 22 254
e 3 12
e 96 240
e 22 25
e 8 127
e 99 245
e 66 68
e 11 132
e 112 184
e 98 249
e 24 71
e 29 186
e 115 189
e 216 241
e 235 254
e 1 87
e 87 127
e 73 192
e 64 143
e 105 181
e 17 68
e 58 69
e 3 133
e 22 146
e 75 238
e 94 251
e 168 200
e 80 87
e 66 189
e 121 125
e 52 254
e 186 254
e 79 128
e 24 192
e 10 28
e 142 184
e 1 208
e 128 249
e 40 136
e 73 84
e 17 189
e 58 190
e 3 254
e 72 88
e 91 138
e 3 25
e 61 195
e 94 143
e 135 144
e 176 182
e 79 249
e 198 200
e 5 34
e 65 85
e 82 254
e 216 254
e 68 90
e 54 192
e 109 128
e 73 205
e 128 141
e 147 154
e 188 192
e 67 131
e 86 144
e 158 249
e 3 146
e 42 74
e 209 251
e 61 87
e 33 254
e 107 203
e 167 254
e 5 155
e 24 205
e 65 206
e 82 146
e 109 249
e 183 198
e 202 211
e 40 149
e 67 252
e 246 254
e 144 206
e 116 144
e 9 18
e 28 31
e 33 146
e 19 211
e 5 47
e 32 150
e 63 254
e 51 163
e 65 98
e 137 203
e 238 255
e 35 155
e 109 141
e 21 28
e 7 93
e 26 106
e 67 144
e 53 209
e 39 45
e 9 139
e 28 152
e 47 165
e 148 217
e 41 91
e 5 168
e 46 206
e 65 219
e 13 29
e 32 42
e 51 55
e 123 160
e 68 224
e 16 34
e 21 149
e 7 214
e 26 227
e 144 219
e 56 106
e 97 107
e 83 209
e 157 158
e 9 31
e 102 222
e 14 109
e 74 160
e 19 224
e 160 163
e 32 163
e 30 53
e 16 155
e 95 219
e 7 106
e 34 209
e 153 160
e 139 225
e 172 173
e 20 45
e 39 58
e 4 37
e 212 215
e 23 50
e 9 152
e 28 165
e 148 230
e 41 104
e 113 209
e 132 222
e 25 96
e 44 109
e 30 174
e 49 224
e 104 160
e 16 47
e 2 112
e 208 217
e 227 230
e 20 166
e 39 179
e 4 158
e 37 106
e 23 171
e 97 120
e 138 158
e 143 236
e 96 161
e 41 225
e 160 176
e 25 217
e 219 231
e 30 66
e 16 168
e 57 169
e 2 4
e 29 107
e 134 160
e 1 8
e 20 58
e 6 123
e 37 227
e 152 177
e 4 50
e 97 241
e 23 63
e 231 241
e 50 166
e 196 220
e 22 67
e 132 235
e 173 236
e 25 109
e 66 110
e 11 174
e 30 187
e 57 61
e 2 125
e 29 228
e 15 64
e 87 169
e 20 179
e 106 182
e 6 244
e 4 171
e 23 184
e 64 185
e 105 223
e 124 236
e 138 171
e 17 110
e 143 249
e 96 174
e 41 238
e 8 61
e 99 179
e 200 231
e 11 66
e 52 67
e 112 118
e 222 249
e 29 120
e 115 123
e 1 21
e 6 136
e 97 254
e 45 64
e 64 77
e 17 231
e 105 115
e 3 67
e 108 120
e 94 185
e 173 249
e 66 123
e 186 188
e 24 126
e 43 139
e 29 241
e 170 180
e 189 193
e 230 231
e 15 77
e 1 142
e 106 195
e 18 82
e 59 120
e 100 121
e 64 198
e 105 236
e 124 249
e 17 123
e 3 188
e 127 254
e 66 244
e 33 67
e 38 182
e 24 247
e 184 236
e 203 249
e 10 83
e 15 198
e 174 191
e 26 27
e 45 77
e 17 244
e 3 80
e 94 198
e 135 199
e 154 249
e 33 188
e 19 24
e 198 255
e 24 139
e 65 140
e 10 204
e 63 67
e 189 206
e 1 155
e 128 196
e 147 209
e 40 83
e 45 198
e 12 21
e 191 252
e 3 201
e 149 255
e 75 77
e 121 193
e 162 194
e 33 80
e 93 94
e 165 199
e 98 209
e 10 96
e 54 139
e 40 204
e 7 27
e 26 40
e 67 78
e 31 155
e 177 209
e 89 96
e 75 198
e 130 134
e 47 99
e 33 201
e 74 202
e 88 137
e 93 215
e 148 151
e 5 102
e 65 153
e 192 194
e 49 145
e 128 209
e 7 148
e 40 96
e 67 199
e 141 148
e 213 253
e 39 100
e 144 153
e 89 217
e 181 220
e 74 94
e 5 223
e 165 212
e 32 97
e 16 89
e 95 153
e 40 217
e 7 40
e 67 91
e 158 209
e 218 223
e 37 148
e 70 96
e 116 212
e 9 86
e 28 99
e 69 100
e 74 215
e 148 164
e 160 218
e 113 143
e 5 115
e 13 205
e 32 218
e 25 30
e 51 231
e 132 156
e 192 207
e 2 46
e 7 161
e 153 215
e 34 35
e 20 100
e 37 40
e 23 105
e 9 207
e 28 220
e 41 159
e 5 236
e 99 100
e 32 110
e 104 215
e 164 229
e 16 102
e 2 167
e 81 231
e 29 41
e 48 54
e 120 159
e 20 221
e 199 223
e 6 57
e 23 226
e 9 99
e 96 216
e 160 231
e 8 103
e 41 51
e 13 218
e 99 221
e 32 231
e 25 43
e 132 169
e 44 56
e 30 121
e 16 223
e 2 59
e 43 60
e 29 162
e 103 111
e 134 215
e 122 124
e 20 113
e 106 116
e 6 178
e 166 167
e 111 231
e 4 105
e 23 118
e 9 220
e 64 119
e 105 157
e 17 44
e 36 57
e 96 108
e 41 172
e 206 239
e 25 164
e 99 113
e 85 178
e 30 242
e 118 126
e 38 103
e 62 231
e 29 54
e 20 234
e 106 237
e 221 224
e 6 70
e 4 226
e 23 239
e 224 229
e 50 113
e 91 114
e 110 127
e 96 229
e 8 116
e 94 119
e 99 234
e 233 234
e 30 134
e 38 224
e 24 60
e 236 239
e 29 175
e 235 243
e 1 76
e 106 129
e 6 191
e 18 245
e 4 118
e 64 132
e 105 170
e 17 57
e 3 122
e 168 189
e 209 227
e 228 240
e 25 177
e 66 178
e 11 242
e 30 255
e 145 242
e 24 181
e 57 129
e 98 130
e 10 17
e 189 248
e 15 132
e 1 197
e 106 250
e 54 60
e 59 175
e 4 239
e 119 189
e 64 253
e 205 229
e 224 242
e 17 178
e 77 192
e 3 14
e 182 245
e 94 132
e 33 122
e 66 70
e 24 73
e 65 74
e 10 138
e 84 124
e 1 89
e 128 130
e 45 132
e 3 135
e 77 84
e 22 148
e 149 189
e 209 240
e 228 253
e 80 89
e 66 191
e 107 192
e 121 127
e 24 194
e 10 30
e 101 148
e 1 210
e 128 251
e 40 138
e 100 189
e 119 202
e 12 76
e 17 191
e 58 192
e 77 205
e 75 132
e 176 184
e 33 135
e 52 148
e 179 189
e 198 202
e 5 36
e 65 87
e 137 192
e 68 92
e 128 143
e 67 133
e 130 189
e 116 254
e 88 192
e 5 157
e 79 143
e 63 135
e 49 200
e 82 148
e 35 36
e 40 151
e 67 254
e 144 208
e 9 20
e 135 159
e 28 33
e 19 213
e 146 254
e 5 49
e 32 152
e 51 165
e 197 219
e 90 93
e 21 30
e 7 95
e 67 146
e 72 224
e 20 34
e 39 47
e 70 151
e 56 216
e 171 203
e 23 39
e 9 141
e 83 90
e 102 103
e 148 219
e 41 93
e 60 106
e 5 170
e 132 211
e 65 221
e 151 224
e 32 44
e 16 36
e 7 216
e 81 165
e 20 155
e 144 221
e 23 160
e 138 147
e 83 211
e 9 33
e 102 224
e 160 165
e 27 50
e 32 165
e 178 219
e 30 55
e 90 106
e 76 171
e 53 224
e 20 47
e 6 112
e 111 165
e 4 39
e 23 52
e 9 154
e 215 222
e 148 232
e 41 106
e 132 224
e 13 44
e 25 98
e 44 111
e 30 176
e 164 176
e 16 49
e 2 114
e 62 165
e 7 229
e 20 168
e 106 171
e 6 233
e 125 221
e 18 58
e 4 160
e 59 96
e 23 173
e 138 160
e 83 224
e 41 227
e 160 178
e 8 50
e 13 165
e 25 219
e 99 168
e 30 68
e 16 170
e 71 106
e 76 184
e 136 235
e 29 109
e 34 224
e 1 10
e 6 125
e 37 229
e 92 165
e 4 52
e 45 53
e 64 66
e 231 243
e 215 235
e 108 109
e 27 184
e 113 224
e 173 238
e 25 111
e 66 112
e 85 125
e 30 189
e 145 176
e 38 50
e 57 63
e 2 127
e 43 128
e 29 230
e 122 192
e 15 66
e 1 131
e 106 184
e 6 246
e 4 173
e 64 187
e 105 225
e 17 112
e 55 138
e 96 176
e 8 63
e 25 232
e 66 233
e 99 181
e 200 233
e 112 120
e 57 184
e 131 133
e 43 249
e 10 72
e 1 252
e 1 23
e 73 128
e 18 192
e 78 243
e 152 192
e 45 66
e 64 79
e 17 233
e 105 117
e 3 69
e 8 184
e 66 125
e 11 189
e 186 190
e 38 63
e 131 254
e 24 128
e 84 179
e 29 243
e 189 195
e 1 144
e 87 184
e 73 249
e 128 185
e 40 72
e 64 200
e 105 238
e 210 254
e 17 125
e 3 190
e 77 139
e 163 179
e 182 192
e 80 144
e 66 246
e 33 69
e 38 184
e 24 249
e 98 198
e 184 238
e 10 85
e 161 254
e 54 128
e 100 244
e 26 29
e 31 144
e 17 246
e 177 198
e 237 249
e 3 82
e 33 190
e 107 139
e 167 190
e 112 254
e 19 26
e 5 91
e 24 141
e 65 142
e 170 195
e 68 147
e 128 198
e 147 211
e 188 249
e 40 85
e 12 23
e 191 254
e 232 255
e 3 203
e 61 144
e 47 209
e 181 209
e 33 82
e 74 83
e 19 147
e 93 96
e 79 198
e 165 201
e 225 252
e 32 86
e 51 99
e 142 254
e 95 142
e 40 206
e 7 29
e 174 206
e 67 80
e 12 144
e 158 198
e 116 201
e 9 75
e 33 203
e 148 153
e 93 217
e 5 104
e 46 142
e 65 155
e 10 219
e 151 158
e 192 196
e 68 160
e 109 198
e 21 85
e 7 150
e 81 99
e 67 201
e 86 214
e 39 102
e 144 155
e 9 196
e 42 144
e 28 209
e 162 209
e 74 96
e 19 160
e 5 225
e 165 214
e 206 215
e 32 99
e 51 112
e 16 91
e 136 156
e 7 42
e 157 215
e 9 88
e 129 153
e 148 166
e 160 220
e 27 105
e 113 145
e 132 158
e 32 220
e 25 32
e 192 209
e 44 45
e 30 110
e 16 212
e 49 160
e 150 212
e 2 48
e 62 99
e 7 163
e 48 164
e 81 112
e 153 217
e 34 37
e 20 102
e 4 94
e 23 107
e 9 209
e 36 46
e 96 97
e 41 161
e 5 238
e 13 99
e 25 153
e 99 102
e 164 231
e 16 104
e 57 105
e 136 169
e 81 233
e 29 43
e 122 234
e 20 223
e 180 212
e 6 59
e 92 99
e 23 228
e 138 215
e 14 179
e 96 218
e 160 233
e 8 105
e 13 220
e 99 223
e 25 45
e 30 123
e 16 225
e 2 61
e 29 164
e 122 126
e 194 231
e 87 105
e 20 115
e 106 118
e 6 180
e 92 220
e 4 107
e 23 120
e 64 121
e 105 159
e 17 46
e 22 124
e 41 174
e 96 110
e 228 229
e 25 166
e 99 115
e 11 231
e 30 244
e 145 231
e 38 105
e 57 118
e 29 56
e 20 236
e 106 239
e 4 228
e 23 241
e 64 242
e 205 218
e 224 231
e 243 244
e 17 167
e 50 115
e 36 180
e 96 231
e 8 118
e 99 236
e 173 185
e 24 62
e 43 75
e 103 126
e 175 231
e 235 245
e 1 78
e 87 118
e 73 183
e 106 131
e 64 134
e 105 172
e 17 59
e 58 60
e 3 124
e 8 239
e 27 252
e 168 191
e 61 65
e 209 229
e 66 180
e 85 193
e 24 183
e 98 132
e 103 247
e 10 19
e 189 250
e 142 175
e 1 199
e 87 239
e 106 252
e 54 62
e 161 188
e 73 75
e 4 241
e 205 231
e 64 255
e 12 65
e 224 244
e 17 180
e 3 245
e 3 16
e 182 247
e 121 237
e 33 124
e 24 75
e 65 76
e 1 91
e 128 132
e 3 137
e 42 65
e 209 242
e 47 143
e 33 245
e 66 193
e 19 81
e 79 132
e 24 196
e 65 197
e 10 32
e 63 124
e 1 212
e 128 253
e 183 189
e 21 127
e 40 140
e 12 78
e 72 92
e 42 186
e 135 148
e 80 212
e 195 199
e 33 137
e 74 138
e 198 204
e 5 38
e 65 89
e 49 81
e 109 132
e 128 145
e 114 210
e 155 248
e 7 84
e 67 135
e 86 148
e 158 253
e 89 153
e 148 208
e 60 95
e 5 159
e 13 20
e 151 213
e 32 33
e 192 251
e 68 215
e 16 25
e 35 38
e 202 215
e 7 205
e 26 218
e 141 205
e 53 92
e 72 105
e 125 197
e 144 210
e 116 148
e 9 22
e 14 100
e 19 215
e 93 164
e 5 51
e 13 141
e 32 154
e 51 167
e 197 221
e 16 146
e 90 95
e 7 97
e 67 148
e 53 213
e 20 36
e 23 41
e 9 143
e 28 156
e 102 105
e 148 221
e 41 95
e 146 148
e 5 172
e 132 213
e 13 33
e 32 46
e 49 215
e 164 165
e 16 38
e 2 103
e 35 51
e 7 218
e 26 231
e 144 223
e 23 162
e 9 35
e 102 226
e 96 152
e 41 216
e 160 167
e 201 205
e 8 39
e 99 157
e 32 167
e 30 57
e 16 159
e 71 95
e 2 224
e 150 159
e 136 224
e 29 98
e 134 151
e 53 226
e 20 49
e 6 114
e 92 154
e 56 231
e 4 41
e 23 54
e 9 156
e 231 232
e 215 224
e 8 160
e 41 108
e 132 226
e 25 100
e 30 178
e 145 165
e 38 39
e 2 116
e 29 219
e 227 234
e 20 170
e 106 173
e 6 235
e 166 224
e 4 162
e 78 111
e 23 175
e 97 124
e 138 162
e 96 165
e 41 229
e 8 52
e 27 65
e 25 221
e 99 170
e 44 234
e 159 221
e 30 70
e 38 160
e 57 173
e 117 224
e 203 227
e 29 111
e 48 124
e 1 12
e 6 127
e 59 219
e 4 54
e 97 245
e 64 68
e 105 106
e 110 184
e 196 224
e 3 58
e 215 237
e 108 111
e 8 173
e 66 114
e 30 191
e 24 117
e 57 65
e 29 232
e 1 133
e 106 186
e 6 248
e 147 187
e 4 175
e 64 189
e 105 227
e 210 243
e 17 114
e 77 128
e 22 192
e 108 232
e 25 234
e 66 235
e 140 184
e 33 58
e 112 122
e 24 238
e 184 227
e 10 74
e 15 189
e 101 192
e 1 254
e 175 178
e 1 25
e 54 117
e 174 182
e 45 68
e 17 235
e 91 184
e 77 249
e 196 237
e 3 71
e 237 238
e 22 84
e 80 254
e 154 240
e 214 254
e 33 179
e 66 127
e 52 192
e 107 128
e 167 179
e 186 192
e 198 246
e 24 130
e 170 184
e 189 197
e 1 146
e 128 187
e 40 74
e 100 125
e 45 189
e 31 254
e 17 127
e 58 128
e 3 192
e 77 141
e 149 246
e 61 133
e 121 184
e 66 248
e 107 249
e 181 198
e 33 71
e 52 84
e 24 251
e 184 240
e 225 241
e 244 254
e 10 87
e 82 192
e 40 195
e 73 143
e 114 144
e 7 18
e 26 31
e 67 69
e 17 248
e 58 249
e 75 189
e 61 254
e 176 241
e 195 254
e 88 128
e 33 192
e 52 205
e 167 192
e 5 93
e 65 144
e 82 84
e 68 149
e 128 200
e 40 87
e 81 88
e 12 254
e 162 198
e 5 214
e 165 203
e 225 254
e 32 88
e 63 192
e 137 141
e 95 144
e 7 31
e 67 82
e 72 160
e 70 87
e 56 152
e 42 254
e 9 77
e 176 254
e 74 206
e 148 155
e 5 106
e 46 144
e 32 209
e 65 157
e 132 147
e 151 160
e 192 198
e 109 200
e 21 87
e 7 152
e 26 165
e 67 203
e 20 91
e 125 144
e 144 157
e 23 96
e 9 198
e 42 146
e 83 147
e 102 160
e 47 224
e 14 47
e 41 150
e 5 227
