p edge 255 18642
e 247 255
e 13 88
e 44 155
e 104 206
e 21 208
e 76 107
e 136 158
e 95 157
e 81 222
e 34 147
e 180 201
e 39 225
e 199 214
e 218 227
e 97 166
e 138 204
e 157 217
e 69 104
e 14 168
e 129 155
e 74 219
e 27 107
e 113 147
e 118 225
e 51 235
e 151 173
e 62 101
e 134 206
e 48 166
e 39 117
e 111 222
e 124 161
e 69 225
e 127 166
e 27 228
e 60 176
e 187 217
e 13 101
e 30 233
e 104 219
e 145 220
e 164 233
e 57 107
e 2 171
e 76 120
e 62 222
e 136 171
e 117 158
e 122 236
e 81 235
e 15 110
e 120 163
e 180 214
e 39 238
e 139 176
e 18 115
e 92 101
e 78 166
e 97 179
e 138 217
e 157 230
e 50 104
e 36 169
e 69 117
e 55 182
e 13 222
e 154 161
e 118 238
e 11 112
e 71 163
e 57 228
e 131 177
e 90 176
e 84 102
e 29 166
e 48 179
e 134 219
e 175 220
e 194 233
e 87 107
e 92 222
e 166 171
e 133 223
e 152 236
e 50 225
e 124 174
e 69 238
e 110 239
e 143 187
e 22 126
e 8 228
e 108 166
e 27 241
e 187 230
e 127 179
e 11 233
e 85 182
e 145 233
e 186 234
e 38 107
e 98 121
e 43 185
e 84 223
e 103 236
e 15 123
e 101 126
e 120 176
e 87 228
e 221 228
e 59 166
e 78 179
e 119 180
e 91 118
e 36 182
e 110 131
e 96 233
e 22 247
e 55 195
e 75 110
e 163 223
e 182 236
e 94 123
e 154 174
e 99 238
e 173 187
e 11 125
e 52 126
e 38 228
e 112 177
e 57 241
e 217 230
e 131 190
e 43 77
e 84 115
e 115 182
e 15 244
e 175 233
e 216 234
e 235 247
e 87 120
e 73 185
e 193 250
e 45 123
e 31 188
e 91 239
e 110 252
e 22 139
e 108 179
e 94 244
e 11 246
e 85 195
e 52 247
e 126 196
e 167 234
e 186 247
e 79 121
e 24 185
e 98 134
e 38 120
e 170 239
e 82 126
e 142 177
e 87 241
e 161 190
e 101 139
e 147 255
e 59 179
e 100 180
e 45 244
e 119 193
e 205 233
e 31 80
e 91 131
e 58 183
e 163 236
e 77 196
e 223 250
e 75 123
e 61 188
e 135 137
e 80 201
e 94 136
e 121 239
e 140 252
e 52 139
e 112 190
e 98 255
e 115 195
e 156 196
e 216 247
e 54 185
e 114 199
e 155 237
e 174 250
e 26 86
e 12 188
e 86 137
e 31 201
e 158 242
e 91 252
e 177 255
e 70 129
e 58 75
e 130 180
e 75 244
e 149 193
e 168 206
e 61 80
e 80 93
e 121 131
e 107 196
e 47 145
e 167 247
e 88 183
e 79 134
e 170 252
e 211 253
e 82 139
e 123 140
e 68 204
e 183 191
e 142 190
e 109 242
e 26 207
e 141 194
e 12 80
e 53 81
e 72 94
e 204 250
e 56 86
e 42 188
e 116 137
e 61 201
e 176 188
e 80 214
e 195 201
e 162 253
e 121 252
e 19 204
e 93 153
e 179 193
e 79 255
e 63 247
e 51 156
e 137 196
e 197 210
e 238 248
e 49 83
e 109 134
e 54 198
e 21 250
e 95 199
e 155 250
e 114 212
e 241 253
e 12 201
e 53 202
e 158 255
e 70 142
e 56 207
e 89 155
e 190 207
e 42 80
e 28 145
e 47 158
e 88 196
e 60 97
e 5 161
e 46 199
e 13 22
e 63 139
e 104 140
e 49 204
e 123 153
e 109 255
e 183 204
e 68 217
e 21 142
e 62 143
e 81 156
e 34 81
e 53 94
e 72 107
e 125 199
e 37 86
e 42 201
e 116 150
e 83 202
e 28 37
e 14 102
e 74 153
e 19 217
e 60 218
e 13 143
e 118 159
e 51 169
e 197 223
e 90 97
e 35 161
e 95 212
e 136 213
e 134 140
e 34 202
e 48 100
e 139 218
e 72 228
e 92 143
e 37 207
e 111 156
e 56 220
e 171 207
e 190 220
e 83 94
e 28 158
e 69 159
e 129 210
e 113 202
e 46 212
e 60 110
e 13 35
e 151 228
e 44 102
e 104 153
e 49 217
e 145 154
e 62 156
e 81 169
e 208 210
e 48 221
e 122 170
e 34 94
e 125 212
e 166 213
e 39 172
e 185 226
e 78 100
e 157 164
e 102 228
e 14 115
e 27 54
e 13 156
e 44 223
e 159 210
e 118 172
e 11 46
e 178 223
e 71 97
e 90 110
e 76 175
e 222 229
e 134 153
e 120 218
e 78 221
e 152 170
e 97 234
e 50 159
e 69 172
e 14 236
e 110 173
e 129 223
e 55 237
e 22 60
e 8 162
e 27 175
e 173 229
e 11 167
e 44 115
e 71 218
e 145 167
e 131 232
e 43 119
e 84 157
e 103 170
e 48 234
e 208 223
e 122 183
e 15 57
e 87 162
e 166 226
e 18 62
e 59 100
e 78 113
e 185 239
e 105 216
e 97 126
e 138 164
e 124 229
e 143 242
e 36 116
e 108 221
e 55 129
e 127 234
e 99 172
e 11 59
e 219 237
e 57 175
e 2 239
e 43 240
e 76 188
e 117 226
e 222 242
e 203 229
e 161 232
e 73 119
e 59 221
e 133 170
e 78 234
e 152 183
e 97 247
e 212 234
e 50 172
e 91 173
e 36 237
e 110 186
e 196 226
e 55 250
e 22 73
e 8 175
e 94 178
e 154 229
e 173 242
e 214 243
e 11 180
e 85 129
e 167 168
e 112 232
e 126 130
e 131 245
e 115 237
e 103 183
e 15 70
e 87 175
e 73 240
e 188 227
e 207 240
e 18 75
e 100 114
e 59 113
e 45 178
e 191 232
e 124 242
e 210 245
e 36 129
e 77 130
e 22 194
e 108 234
e 127 247
e 168 248
e 121 173
e 140 186
e 85 250
e 126 251
e 200 237
e 52 73
e 38 175
e 112 124
e 79 176
e 43 253
e 203 242
e 115 129
e 15 191
e 101 194
e 142 232
e 161 245
e 18 196
e 133 183
e 100 235
e 119 248
e 45 70
e 12 122
e 31 135
e 91 186
e 36 250
e 77 251
e 94 191
e 154 242
e 195 243
e 107 130
e 52 194
e 167 181
e 126 143
e 186 194
e 112 245
e 10 197
e 115 250
e 230 237
e 156 251
e 68 138
e 54 240
e 109 176
e 73 253
e 21 63
e 147 202
e 207 253
e 188 240
e 100 127
e 45 191
e 12 243
e 119 140
e 191 245
e 89 197
e 22 207
e 149 248
e 77 143
e 42 122
e 61 135
e 121 186
e 181 200
e 19 138
e 98 202
e 225 243
e 63 181
e 101 207
e 142 245
e 95 133
e 100 248
e 174 197
e 12 135
e 72 149
e 58 251
e 177 202
e 42 243
e 75 191
e 135 205
e 28 79
e 47 92
e 88 130
e 107 143
e 52 207
e 179 248
e 93 208
e 46 133
e 10 210
e 137 251
e 63 73
e 49 138
e 68 151
e 54 253
e 169 203
e 21 76
e 81 90
e 86 205
e 213 246
e 172 208
e 125 133
e 70 197
e 58 143
e 130 248
e 89 210
e 39 93
e 42 135
e 61 148
e 28 200
e 88 251
e 47 213
e 102 149
e 14 36
e 60 152
e 46 254
e 93 100
e 63 194
e 104 195
e 51 103
e 123 208
e 35 95
e 21 197
e 95 146
e 81 211
e 155 197
e 114 159
e 26 46
e 34 136
e 72 162
e 199 203
e 158 202
e 37 141
e 70 89
e 56 154
e 116 205
e 157 206
e 14 157
e 74 208
e 46 146
e 151 162
e 49 151
e 90 152
e 35 216
e 150 203
e 169 216
e 62 90
e 134 195
e 81 103
e 153 208
e 172 221
e 125 146
e 111 211
e 83 149
e 28 213
e 102 162
e 143 163
e 47 226
e 14 49
e 60 165
e 187 206
e 146 205
e 206 219
e 13 90
e 44 157
e 123 221
e 164 222
e 35 108
e 117 147
e 62 211
e 34 149
e 53 162
e 180 203
e 39 227
e 199 216
e 37 154
e 56 167
e 97 168
e 138 206
e 157 219
e 50 93
e 14 170
e 129 157
e 55 171
e 27 109
e 13 211
e 113 149
e 118 227
e 11 101
e 71 152
e 90 165
e 150 216
e 76 230
e 62 103
e 103 104
e 48 168
e 134 208
e 153 221
e 194 222
e 92 211
e 50 214
e 124 163
e 69 227
e 83 162
e 143 176
e 36 50
e 27 230
e 206 232
e 44 170
e 145 222
e 164 235
e 57 109
e 2 173
e 76 122
e 62 224
e 103 225
e 136 173
e 122 238
e 15 112
e 180 216
e 139 178
e 18 117
e 92 103
e 78 168
e 97 181
e 138 219
e 91 107
e 36 171
e 110 120
e 94 112
e 27 122
e 154 163
e 113 162
e 118 240
e 11 114
e 112 166
e 57 230
e 217 219
e 131 179
e 76 243
e 84 104
e 103 117
e 15 233
e 175 222
e 48 181
e 115 171
e 87 109
e 18 238
e 166 173
e 133 225
e 152 238
e 45 112
e 124 176
e 69 240
e 110 241
e 36 63
e 108 168
e 8 230
e 127 181
e 27 243
e 228 233
e 145 235
e 186 236
e 38 109
e 84 225
e 103 238
e 122 251
e 15 125
e 87 230
e 161 179
e 221 230
e 59 168
e 78 181
e 205 222
e 119 182
e 45 233
e 31 69
e 91 120
e 77 185
e 110 133
e 182 238
e 75 112
e 94 125
e 154 176
e 80 190
e 140 241
e 52 128
e 38 230
e 112 179
e 57 243
e 98 244
e 10 131
e 43 79
e 175 235
e 216 236
e 87 122
e 54 174
e 73 187
e 18 251
e 133 238
e 193 252
e 45 125
e 31 190
e 91 241
e 89 131
e 22 141
e 8 243
e 149 182
e 75 233
e 168 195
e 228 246
e 61 69
e 108 181
e 94 246
e 11 248
e 107 185
e 167 236
e 19 72
e 79 123
e 98 136
e 10 252
e 43 200
e 84 238
e 63 115
e 170 241
e 101 141
e 87 243
e 142 179
e 100 182
e 45 246
e 119 195
e 205 235
e 12 69
e 31 82
e 72 83
e 58 185
e 163 238
e 204 239
e 223 252
e 75 125
e 116 126
e 61 190
e 135 139
e 121 241
e 80 203
e 181 255
e 19 193
e 52 141
e 93 142
e 79 244
e 38 243
e 137 185
e 49 72
e 109 123
e 54 187
e 73 200
e 114 201
e 155 239
e 174 252
e 12 190
e 86 139
e 31 203
e 70 131
e 58 77
e 130 182
e 149 195
e 190 196
e 42 69
e 61 82
e 88 185
e 47 147
e 126 211
e 19 85
e 46 188
e 79 136
e 211 255
e 49 193
e 82 141
e 109 244
e 68 206
e 183 193
e 123 142
e 21 131
e 100 195
e 141 196
e 12 82
e 53 83
e 70 252
e 204 252
e 116 139
e 61 203
e 102 204
e 176 190
e 162 255
e 135 152
e 14 91
e 74 142
e 19 206
e 179 195
e 46 80
e 51 158
e 156 211
e 49 85
e 35 150
e 68 98
e 21 252
e 95 201
e 114 214
e 241 255
e 109 136
e 155 252
e 26 101
e 12 203
e 72 217
e 171 196
e 190 209
e 28 147
e 14 212
e 129 199
e 234 252
e 5 163
e 151 217
e 44 91
e 104 142
e 49 206
e 68 219
e 183 206
e 62 145
e 81 158
e 26 222
e 34 83
e 125 201
e 39 161
e 226 253
e 37 88
e 56 101
e 42 203
e 83 204
e 102 217
e 14 104
e 27 43
e 13 145
e 44 212
e 159 199
e 51 171
e 178 212
e 197 225
e 95 214
e 134 142
e 34 204
e 153 155
e 48 102
e 139 220
e 53 217
e 39 53
e 92 145
e 111 158
e 56 222
e 97 223
e 69 161
e 14 225
e 129 212
e 27 164
e 60 112
e 151 230
e 44 104
e 104 155
e 145 156
e 71 207
e 164 169
e 90 220
e 103 159
e 48 223
e 122 172
e 125 214
e 39 174
e 185 228
e 97 115
e 138 153
e 124 218
e 157 166
e 83 217
e 60 233
e 27 56
e 13 158
e 44 225
e 159 212
e 118 174
e 11 48
e 219 226
e 178 225
e 57 164
e 2 228
e 90 112
e 76 177
e 136 228
e 34 217
e 120 220
e 139 233
e 92 158
e 133 159
e 37 222
e 152 172
e 97 236
e 212 223
e 78 223
e 50 161
e 69 174
e 110 175
e 55 239
e 8 164
e 27 177
e 113 217
e 11 169
e 85 118
e 71 220
e 145 169
e 90 233
e 38 43
e 43 121
e 84 159
e 103 172
e 48 236
e 208 225
e 122 185
e 15 59
e 87 164
e 166 228
e 207 229
e 59 102
e 78 115
e 210 234
e 143 244
e 36 118
e 96 169
e 22 183
e 55 131
e 108 223
e 8 56
e 127 236
e 25 225
e 140 175
e 85 239
e 200 226
e 11 61
e 219 239
e 38 164
e 57 177
e 2 241
e 43 242
e 76 190
e 117 228
e 222 244
e 15 180
e 120 233
e 161 234
e 73 121
e 18 185
e 59 223
e 78 236
e 119 237
e 45 59
e 91 175
e 36 239
e 110 188
e 55 252
e 108 115
e 8 177
e 94 180
e 22 75
e 173 244
e 214 245
e 52 183
e 167 170
e 112 234
e 85 131
e 131 247
e 43 134
e 84 172
e 115 239
e 87 177
e 73 242
e 147 191
e 188 229
e 207 242
e 59 115
e 45 180
e 119 129
e 64 193
e 191 234
e 210 247
e 58 119
e 163 172
e 22 196
e 182 185
e 149 237
e 168 250
e 80 137
e 121 175
e 140 188
e 85 252
e 126 253
e 200 239
e 52 75
e 38 177
e 112 126
e 79 178
e 98 191
e 43 255
e 203 244
e 115 131
e 15 193
e 101 196
e 142 234
e 161 247
e 202 248
e 54 121
e 82 183
e 73 134
e 114 135
e 100 237
e 155 173
e 119 250
e 193 199
e 12 124
e 31 137
e 158 178
e 91 188
e 177 191
e 77 253
e 237 242
e 58 240
e 75 180
e 94 193
e 135 194
e 176 232
e 195 245
e 61 245
e 88 119
e 47 81
e 52 196
e 126 145
e 112 247
e 179 237
e 10 199
e 170 188
e 115 252
e 156 253
e 68 140
e 54 242
e 109 178
e 73 255
e 147 204
e 188 242
e 26 143
e 100 129
e 191 247
e 89 199
e 77 145
e 149 250
e 130 237
e 42 124
e 61 137
e 88 240
e 121 188
e 107 253
e 181 202
e 47 202
e 19 140
e 79 191
e 63 183
e 51 92
e 82 196
e 142 247
e 183 248
e 35 84
e 21 186
e 95 135
e 54 134
e 100 250
e 141 251
e 26 35
e 12 137
e 53 138
e 72 151
e 58 253
e 177 204
e 56 143
e 42 245
e 116 194
e 135 207
e 176 245
e 28 81
e 47 94
e 107 145
e 74 197
e 179 250
e 93 210
e 46 135
e 10 212
e 137 253
e 51 213
e 63 75
e 109 191
e 54 255
e 68 153
e 169 205
e 21 78
e 62 79
e 81 92
e 26 156
e 141 143
e 86 207
e 172 210
e 213 248
e 125 135
e 70 199
e 39 95
e 89 212
e 130 250
e 171 251
e 42 137
e 83 138
e 28 202
e 102 151
e 47 215
e 162 202
e 74 89
e 19 153
e 60 154
e 146 194
e 63 196
e 104 197
e 123 210
e 21 199
e 34 138
e 53 151
e 72 164
e 199 205
e 39 216
e 37 143
e 56 156
e 116 207
e 157 208
e 69 95
e 14 159
e 129 146
e 74 210
e 201 251
e 93 223
e 113 138
e 13 200
e 151 164
e 49 153
e 150 205
e 169 218
e 62 92
e 48 157
e 153 210
e 172 223
e 39 108
e 70 212
e 111 213
e 83 151
e 102 164
e 69 216
e 14 51
e 60 167
e 187 208
e 146 207
e 206 221
e 13 92
e 44 159
e 104 210
e 123 223
e 57 98
e 76 111
e 62 213
e 136 162
e 81 226
e 122 227
e 34 151
e 120 154
e 180 205
e 39 229
e 139 167
e 37 156
e 78 157
e 97 170
e 138 208
e 50 95
e 14 172
e 55 173
e 27 111
e 13 213
e 113 151
e 118 229
e 11 103
e 44 51
e 71 154
e 90 167
e 131 168
e 76 232
e 43 55
e 134 210
e 48 170
e 175 211
e 87 98
e 92 213
e 111 226
e 152 227
e 50 216
e 143 178
e 108 157
e 8 219
e 127 170
e 27 232
e 187 221
e 85 173
e 38 98
e 164 237
e 57 111
e 2 175
e 43 176
e 62 226
e 103 227
e 122 240
e 15 114
e 120 167
e 18 119
e 59 157
e 78 170
e 138 221
e 97 183
e 50 108
e 91 109
e 36 173
e 55 186
e 182 227
e 94 114
e 173 178
e 11 116
e 38 219
e 112 168
e 131 181
e 76 245
e 43 68
e 115 173
e 15 235
e 194 237
e 87 111
e 18 240
e 133 227
e 152 240
e 45 114
e 91 230
e 124 178
e 110 243
e 94 235
e 27 245
e 127 183
e 228 235
e 11 237
e 85 186
e 30 250
e 126 187
e 186 238
e 38 111
e 79 112
e 98 125
e 84 227
e 103 240
e 82 117
e 15 127
e 142 168
e 87 232
e 147 246
e 221 232
e 59 170
e 100 171
e 12 58
e 31 71
e 36 186
e 163 227
e 22 251
e 182 240
e 77 187
e 75 114
e 121 230
e 140 243
e 52 130
e 38 232
e 112 181
e 57 245
e 10 133
e 115 186
e 15 248
e 156 187
e 216 238
e 101 251
e 68 74
e 54 176
e 18 253
e 133 240
e 174 241
e 12 179
e 45 127
e 91 243
e 177 246
e 89 133
e 22 143
e 149 184
e 94 248
e 168 197
e 61 71
e 33 238
e 107 187
e 52 251
e 167 238
e 126 200
e 19 74
e 98 138
e 84 240
e 170 243
e 63 117
e 82 130
e 68 195
e 142 181
e 101 143
e 87 245
e 21 120
e 54 68
e 45 248
e 119 197
e 12 71
e 31 84
e 58 187
e 163 240
e 77 200
e 204 241
e 42 179
e 75 127
e 135 141
e 121 243
e 80 205
e 74 131
e 19 195
e 79 246
e 46 69
e 10 146
e 63 238
e 82 251
e 137 187
e 156 200
e 49 74
e 216 251
e 68 87
e 95 190
e 114 203
e 86 141
e 31 205
e 158 246
e 72 206
e 70 133
e 58 79
e 89 146
e 75 248
e 149 197
e 42 71
e 47 149
e 88 187
e 107 200
e 234 241
e 19 87
e 60 88
e 151 206
e 104 131
e 49 195
e 109 246
e 183 195
e 202 208
e 81 147
e 26 211
e 246 251
e 72 98
e 125 190
e 58 200
e 37 77
e 56 90
e 61 205
e 102 206
e 14 93
e 19 208
e 179 197
e 46 82
e 63 251
e 178 201
e 197 214
e 238 252
e 49 87
e 35 152
e 114 216
e 34 193
e 26 103
e 53 206
e 72 219
e 39 42
e 70 146
e 111 147
e 56 211
e 190 211
e 28 149
e 14 214
e 129 201
e 47 162
e 60 101
e 46 203
e 151 219
e 44 93
e 49 208
e 123 157
e 35 44
e 62 147
e 141 211
e 34 85
e 53 98
e 125 203
e 37 90
e 56 103
e 83 206
e 143 220
e 55 107
e 60 222
e 27 45
e 13 147
e 44 214
e 159 201
e 118 163
e 11 37
e 178 214
e 71 88
e 197 227
e 90 101
e 150 152
e 117 204
e 136 217
e 76 166
e 48 104
e 34 206
e 120 209
e 53 219
e 139 222
e 92 147
e 37 211
e 171 211
e 83 98
e 50 150
e 69 163
e 14 227
e 129 214
e 113 206
e 173 220
e 85 107
e 145 158
e 164 171
e 208 214
e 122 174
e 15 48
e 39 176
e 166 217
e 18 53
e 185 230
e 78 104
e 83 219
e 143 233
e 36 107
e 55 120
e 41 222
e 201 211
e 127 225
e 44 227
e 159 214
e 85 228
e 11 50
e 219 228
e 71 101
e 57 166
e 2 230
e 76 179
e 117 217
e 136 230
e 222 233
e 15 169
e 48 117
e 120 222
e 18 174
e 133 161
e 59 212
e 78 225
e 97 238
e 212 225
e 152 174
e 50 163
e 69 176
e 110 177
e 8 166
e 113 219
e 27 179
e 154 220
e 173 233
e 85 120
e 71 222
e 145 171
e 112 223
e 38 45
e 131 236
e 43 123
e 84 161
e 115 228
e 48 238
e 103 174
e 15 61
e 87 166
e 59 104
e 78 117
e 124 233
e 210 236
e 36 120
e 77 121
e 22 185
e 108 225
e 127 238
e 168 239
e 80 126
e 66 228
e 140 177
e 85 241
e 121 164
e 200 228
e 219 241
e 57 179
e 98 180
e 43 244
e 203 233
e 115 120
e 15 182
e 101 185
e 142 223
e 161 236
e 54 110
e 73 123
e 18 187
e 133 174
e 59 225
e 119 239
e 31 126
e 91 177
e 36 241
e 196 230
e 110 190
e 22 77
e 8 179
e 75 169
e 94 182
e 154 233
e 107 121
e 52 185
e 167 172
e 126 134
e 112 236
e 10 188
e 170 177
e 43 136
e 84 174
e 115 241
e 87 179
e 128 180
e 188 231
e 147 193
e 207 244
e 100 118
e 45 182
e 119 131
e 64 195
e 31 247
e 191 236
e 163 174
e 108 238
e 149 239
e 77 134
e 168 252
e 121 177
e 80 139
e 107 242
e 181 191
e 126 255
e 140 190
e 19 129
e 52 77
e 79 180
e 98 193
e 225 234
e 82 185
e 101 198
e 142 236
e 161 249
e 202 250
e 54 123
e 73 136
e 114 137
e 100 239
e 174 188
e 119 252
e 193 201
e 12 126
e 155 175
e 72 140
e 158 180
e 177 193
e 77 255
e 58 242
e 75 182
e 61 247
e 94 195
e 176 234
e 28 70
e 195 247
e 47 83
e 107 134
e 126 147
e 179 239
e 93 199
e 46 124
e 10 201
e 137 242
e 49 129
e 68 142
e 109 180
e 54 244
e 188 244
e 147 206
e 100 131
e 26 145
e 86 196
e 12 247
e 232 250
e 70 188
e 58 134
e 130 239
e 190 253
e 42 126
e 61 139
e 102 140
e 88 242
e 47 204
e 14 27
e 181 204
e 19 142
e 46 245
e 79 193
e 225 247
e 63 185
e 51 94
e 123 199
e 183 250
e 35 86
e 21 188
e 95 137
e 114 150
e 155 188
e 141 253
e 100 252
e 26 37
e 12 139
e 53 140
e 158 193
e 58 255
e 70 80
e 56 145
e 42 247
e 116 196
e 135 209
e 176 247
e 28 83
e 88 134
e 74 199
e 93 212
e 179 252
e 46 137
e 151 153
e 137 255
e 49 142
e 35 207
e 150 194
e 68 155
e 169 207
e 21 80
e 109 193
e 62 81
e 81 94
e 141 145
e 86 209
e 213 250
e 172 212
e 153 199
e 39 97
e 125 137
e 70 201
e 130 252
e 89 214
e 171 253
e 42 139
e 83 140
e 28 204
e 102 153
e 88 255
e 47 217
e 162 204
e 146 196
e 247 248
e 13 81
e 206 210
e 104 199
e 123 212
e 250 253
e 21 201
e 62 202
e 136 151
e 95 150
e 34 140
e 53 153
e 180 194
e 39 218
e 199 207
e 37 145
e 56 158
e 157 210
e 50 84
e 69 97
e 14 161
e 74 212
e 201 253
e 27 100
e 13 202
e 113 140
e 151 166
e 118 218
e 71 143
e 35 220
e 150 207
e 48 159
e 153 212
e 172 225
e 39 110
e 125 150
e 92 202
e 83 153
e 28 217
e 69 218
e 124 154
e 60 169
e 187 210
e 13 94
e 44 161
e 104 212
e 145 213
e 164 226
e 57 100
e 2 164
e 76 113
e 62 215
e 136 164
e 81 228
e 122 229
e 117 151
e 34 153
e 120 156
e 180 207
e 139 169
e 37 158
e 97 172
e 138 210
e 50 97
e 69 110
e 36 162
e 55 175
e 113 153
e 71 156
e 57 221
e 90 169
e 76 234
e 84 95
e 43 57
e 103 108
e 134 212
e 48 172
e 175 213
e 87 100
e 111 228
e 152 229
e 50 218
e 124 167
e 143 180
e 110 232
e 36 54
e 22 119
e 8 221
e 127 172
e 27 234
e 187 223
e 108 159
e 11 226
e 85 175
e 145 226
e 164 239
e 57 113
e 2 177
e 43 178
e 84 216
e 103 229
e 122 242
e 15 116
e 120 169
e 161 170
e 87 221
e 18 121
e 59 159
e 78 172
e 119 173
e 31 60
e 91 111
e 36 175
e 110 124
e 22 240
e 55 188
e 182 229
e 75 103
e 94 116
e 154 167
e 140 232
e 11 118
e 38 221
e 112 170
e 57 234
e 131 183
e 76 247
e 43 70
e 29 172
e 84 108
e 15 237
e 175 226
e 115 175
e 194 239
e 235 240
e 87 113
e 73 178
e 193 243
e 45 116
e 64 129
e 31 181
e 91 232
e 110 245
e 8 234
e 149 173
e 168 186
e 94 237
e 11 239
e 52 240
e 167 227
e 85 188
e 186 240
e 38 113
e 79 114
e 84 229
e 103 242
e 82 119
e 142 170
e 161 183
e 106 247
e 147 248
e 54 57
e 59 172
e 100 173
e 119 186
e 205 226
e 12 60
e 31 73
e 91 124
e 58 176
e 163 229
e 22 253
e 182 242
e 223 243
e 75 116
e 61 181
e 94 129
e 121 232
e 80 194
e 140 245
e 38 234
e 79 235
e 112 183
e 98 248
e 10 135
e 115 188
e 15 250
e 101 253
e 216 240
e 82 240
e 235 253
e 109 114
e 73 191
e 18 255
e 133 242
e 174 243
e 26 79
e 12 181
e 86 130
e 31 194
e 91 245
e 177 248
e 58 68
e 77 81
e 75 237
e 149 186
e 94 250
e 42 60
e 89 135
e 61 73
e 168 199
e 88 176
e 130 173
e 135 251
e 52 253
e 126 202
e 167 240
e 186 253
e 19 76
e 79 127
e 170 245
e 63 119
e 82 132
e 68 197
e 142 183
e 109 235
e 21 122
e 54 70
e 100 186
e 141 187
e 86 251
e 12 73
e 53 74
e 72 87
e 77 202
e 204 243
e 56 79
e 42 181
e 116 130
e 61 194
e 135 143
e 80 207
e 162 246
e 121 245
e 74 133
e 19 197
e 93 146
e 79 248
e 63 240
e 137 189
e 82 253
e 51 149
e 197 203
e 49 76
e 156 202
e 109 127
e 21 243
e 54 191
e 155 243
e 114 205
e 26 92
e 12 194
e 86 143
e 53 195
e 72 208
e 158 248
e 70 135
e 130 186
e 75 250
e 116 251
e 190 200
e 28 138
e 107 202
e 19 89
e 60 90
e 151 208
e 104 133
e 49 197
e 123 146
e 68 210
e 183 197
e 109 248
e 21 135
e 81 149
e 26 213
e 141 200
e 34 74
e 53 87
e 72 100
e 39 152
e 56 92
e 42 194
e 116 143
e 102 208
e 14 95
e 74 146
e 19 210
e 60 211
e 93 159
e 27 34
e 13 136
e 46 84
e 63 253
e 51 162
e 178 203
e 16 141
e 49 89
e 35 154
e 95 205
e 136 206
e 48 93
e 34 195
e 53 208
e 139 211
e 72 221
e 39 44
e 92 136
e 111 149
e 56 213
e 37 200
e 190 213
e 28 151
e 69 152
e 14 216
e 129 203
e 113 195
e 46 205
e 60 103
e 151 221
e 44 95
e 104 146
e 145 147
e 49 210
e 90 211
e 62 149
e 81 162
e 122 163
e 34 87
e 125 205
e 166 206
e 185 219
e 37 92
e 78 93
e 83 208
e 102 221
e 143 222
e 14 108
e 55 109
e 27 47
e 13 149
e 44 216
e 159 203
e 11 39
e 90 103
e 2 219
e 76 168
e 117 206
e 136 219
e 34 208
e 120 211
e 92 149
e 37 213
e 78 214
e 152 163
e 97 227
e 212 214
e 111 162
e 50 152
e 196 206
e 14 229
e 129 216
e 8 155
e 27 168
e 113 208
e 173 222
e 85 109
e 131 225
e 43 112
e 103 163
e 48 227
e 208 216
e 122 176
e 15 50
e 166 219
e 185 232
e 18 55
e 59 93
e 97 119
e 124 222
e 143 235
e 36 109
e 108 214
e 55 122
e 127 227
e 44 229
e 159 216
e 118 178
e 11 52
e 219 230
e 85 230
e 57 168
e 2 232
e 117 219
e 203 222
e 222 235
e 15 171
e 161 225
e 73 112
e 18 176
e 133 163
e 78 227
e 59 214
e 97 240
e 45 50
e 212 227
e 91 166
e 36 230
e 196 219
e 55 243
e 110 179
e 94 171
e 27 181
e 154 222
e 173 235
e 214 236
e 11 173
e 85 122
e 112 225
e 131 238
e 43 125
e 84 163
e 115 230
e 15 63
e 87 168
e 147 182
e 207 233
e 18 68
e 100 107
e 45 171
e 119 120
e 191 225
e 124 235
e 210 238
e 36 122
e 77 123
e 22 187
e 108 227
e 127 240
e 168 241
e 80 128
e 66 230
e 121 166
e 85 243
e 200 230
e 140 179
e 38 168
e 57 181
e 98 182
e 43 246
e 101 187
e 142 225
e 161 238
e 54 112
e 73 125
e 59 227
e 100 228
e 133 176
e 174 177
e 119 241
e 45 63
e 12 115
e 91 179
e 77 244
e 154 235
e 195 236
e 214 249
e 52 187
e 126 136
e 112 238
e 10 190
e 156 244
e 68 131
e 54 233
e 87 181
e 73 246
e 21 56
e 147 195
e 207 246
e 188 233
e 100 120
e 45 184
e 119 133
e 86 185
e 191 238
e 130 228
e 22 200
e 163 176
e 149 241
e 42 115
e 77 136
e 80 141
e 121 179
e 107 244
e 181 193
e 98 195
e 225 236
e 63 174
e 82 187
e 101 200
e 183 239
e 202 252
e 54 125
e 155 177
e 100 241
e 31 141
e 58 244
e 177 195
e 237 246
e 116 185
e 176 236
e 28 72
e 88 123
e 47 85
e 107 136
e 19 252
e 52 200
e 46 126
e 10 203
e 137 244
e 51 204
e 49 131
e 109 182
e 169 196
e 21 69
e 26 147
e 172 201
e 213 239
e 70 190
e 58 136
e 130 241
e 89 203
e 61 141
e 28 193
e 47 206
e 88 244
e 102 142
e 181 206
e 74 80
e 60 145
e 46 247
e 146 185
e 79 195
e 13 70
e 49 252
e 123 201
e 82 200
e 183 252
e 35 88
e 21 190
e 95 139
e 81 204
e 114 152
e 141 255
e 155 190
e 34 129
e 26 39
e 53 142
e 158 195
e 125 247
e 72 155
e 37 134
e 56 147
e 135 211
e 28 85
e 88 136
e 129 137
e 74 201
e 14 150
e 93 214
e 220 255
e 151 155
e 51 217
e 90 145
e 150 196
e 169 209
e 62 83
e 153 201
e 172 214
e 125 139
e 70 203
e 111 204
e 171 255
e 83 142
e 28 206
e 102 155
e 143 156
e 47 219
e 14 42
e 60 158
e 247 250
e 13 83
e 206 212
e 44 150
e 104 201
e 123 214
e 2 153
e 21 203
e 35 101
e 76 102
e 81 217
e 62 204
e 34 142
e 120 145
e 53 155
e 139 158
e 180 196
e 39 220
e 37 147
e 23 212
e 138 199
e 157 212
e 50 86
e 14 163
e 55 164
e 74 214
e 201 255
e 27 102
e 13 204
e 113 142
e 118 220
e 71 145
e 90 158
e 35 222
e 76 223
e 48 161
e 134 201
e 153 214
e 39 112
e 111 217
e 50 207
e 83 155
e 69 220
e 143 169
e 36 43
e 55 56
e 127 161
e 27 223
e 187 212
e 206 225
e 44 163
e 85 164
e 30 228
e 104 214
e 38 89
e 57 102
e 2 166
e 76 115
e 117 153
e 136 166
e 122 231
e 120 158
e 39 233
e 18 110
e 78 161
e 97 174
e 138 212
e 157 225
e 91 100
e 36 164
e 110 113
e 55 177
e 27 115
e 13 217
e 113 155
e 118 233
e 71 158
e 112 159
e 57 223
e 131 172
e 84 97
e 15 226
e 48 174
e 194 228
e 87 102
e 92 217
e 133 218
e 50 220
e 124 169
e 69 233
e 36 56
e 22 121
e 108 161
e 27 236
e 66 164
e 11 228
e 85 177
e 145 228
e 186 229
e 57 115
e 98 116
e 43 180
e 84 218
e 122 244
e 15 118
e 101 121
e 87 223
e 161 172
e 221 223
e 59 161
e 45 226
e 119 175
e 91 113
e 36 177
e 77 178
e 22 242
e 163 218
e 154 169
e 140 234
e 11 120
e 52 121
e 112 172
e 57 236
e 98 237
e 131 185
e 84 110
e 115 177
e 175 228
e 216 229
e 101 242
e 54 167
e 87 115
e 73 180
e 18 244
e 152 244
e 193 245
e 45 118
e 64 131
e 31 183
e 91 234
e 110 247
e 75 226
e 8 236
e 94 239
e 149 175
e 108 174
e 228 239
e 11 241
e 107 178
e 126 191
e 186 242
e 79 116
e 24 180
e 98 129
e 10 245
e 43 193
e 82 121
e 101 134
e 142 172
e 161 185
e 87 236
e 147 250
e 54 59
e 100 175
e 45 239
e 119 188
e 12 62
e 31 75
e 58 178
e 77 191
e 22 255
e 223 245
e 75 118
e 61 183
e 121 234
e 140 247
e 181 248
e 52 134
e 38 236
e 79 237
e 93 135
e 98 250
e 46 60
e 10 137
e 137 178
e 156 191
e 101 255
e 216 242
e 54 180
e 73 193
e 114 194
e 155 232
e 174 245
e 26 81
e 12 183
e 86 132
e 31 196
e 158 237
e 91 247
e 177 250
e 58 70
e 70 124
e 89 137
e 75 239
e 149 188
e 94 252
e 135 253
e 130 175
e 61 75
e 47 140
e 88 178
e 107 191
e 52 255
e 126 204
e 167 242
e 19 78
e 79 129
e 46 181
e 170 247
e 211 248
e 63 121
e 82 134
e 49 186
e 68 199
e 183 186
e 123 135
e 26 202
e 100 188
e 86 253
e 12 75
e 53 76
e 70 245
e 58 191
e 204 245
e 42 183
e 102 197
e 135 145
e 121 247
e 162 248
e 14 84
e 74 135
e 19 199
e 179 188
e 79 250
e 46 73
e 63 242
e 137 191
e 82 255
e 51 151
e 197 205
e 156 204
e 35 143
e 68 91
e 95 194
e 109 129
e 114 207
e 155 245
e 26 94
e 12 196
e 53 197
e 158 250
e 72 210
e 70 137
e 56 202
e 89 150
e 116 253
e 190 202
e 42 75
e 130 188
e 47 153
e 234 245
e 46 194
e 151 210
e 44 84
e 104 135
e 49 199
e 109 250
e 150 251
e 183 199
e 21 137
e 62 138
e 67 253
e 141 202
e 34 76
e 53 89
e 125 194
e 37 81
e 56 94
e 42 196
e 83 197
e 102 210
e 14 97
e 146 253
e 60 213
e 27 36
e 13 138
e 118 154
e 51 164
e 178 205
e 197 218
e 35 156
e 136 208
e 48 95
e 180 251
e 139 213
e 92 138
e 37 202
e 111 151
e 171 202
e 28 153
e 69 154
e 14 218
e 129 205
e 27 157
e 113 197
e 132 210
e 151 223
e 44 97
e 71 200
e 145 149
e 90 213
e 62 151
e 48 216
e 81 164
e 34 89
e 125 207
e 166 208
e 185 221
e 37 94
e 97 108
e 83 210
e 157 159
e 124 211
e 36 98
e 55 111
e 127 216
e 60 226
e 27 49
e 13 151
e 44 218
e 159 205
e 178 218
e 71 92
e 57 157
e 2 221
e 76 170
e 136 221
e 222 224
e 48 108
e 34 210
e 120 213
e 92 151
e 78 216
e 111 164
e 212 216
e 50 154
e 69 167
e 55 232
e 8 157
e 27 170
e 154 211
e 113 210
e 11 162
e 85 111
e 71 213
e 145 162
e 131 227
e 164 175
e 43 114
e 84 152
e 48 229
e 208 218
e 122 178
e 15 52
e 87 157
e 166 221
e 207 222
e 18 57
e 59 95
e 78 108
e 210 227
e 143 237
e 36 111
e 55 124
e 108 216
e 22 176
e 127 229
e 8 49
e 140 168
e 200 219
e 11 54
e 219 232
e 38 157
e 57 170
e 2 234
e 117 221
e 76 183
e 222 237
e 15 173
e 120 226
e 73 114
e 59 216
e 78 229
e 152 178
e 50 167
e 91 168
e 36 232
e 110 181
e 55 245
e 22 68
e 8 170
e 94 173
e 214 238
e 11 175
e 112 227
e 131 240
e 43 127
e 103 178
e 115 232
e 87 170
e 73 235
e 188 222
e 207 235
e 59 108
e 119 122
e 191 227
e 210 240
e 58 112
e 77 125
e 108 229
e 149 230
e 168 243
e 61 117
e 80 130
e 140 181
e 126 246
e 52 68
e 38 170
e 79 171
e 43 248
e 203 237
e 115 124
e 15 186
e 142 227
e 82 176
e 161 240
e 202 241
e 54 114
e 73 127
e 18 191
e 100 230
e 59 229
e 12 117
e 31 130
e 91 181
e 77 246
e 75 173
e 94 186
e 176 225
e 135 187
e 195 238
e 80 251
e 214 251
e 47 74
e 107 125
e 52 189
e 126 138
e 112 240
e 179 230
e 170 181
e 115 245
e 230 232
e 68 133
e 54 235
e 73 248
e 147 197
e 21 58
e 188 235
e 26 136
e 45 186
e 86 187
e 31 251
e 12 238
e 191 240
e 58 125
e 130 230
e 77 138
e 149 243
e 42 117
e 61 130
e 121 181
e 47 195
e 107 246
e 181 195
e 80 143
e 19 133
e 98 197
e 225 238
e 244 251
e 63 176
e 51 85
e 142 240
e 101 202
e 183 241
e 21 179
e 54 127
e 114 141
e 100 243
e 141 244
e 12 130
e 53 131
e 58 246
e 177 197
e 56 136
e 75 186
e 116 187
e 42 238
e 176 238
e 135 200
e 28 74
e 195 251
e 88 125
e 47 87
e 74 190
e 107 138
e 93 203
e 10 205
e 51 206
e 137 246
e 63 68
e 49 133
e 68 146
e 54 248
e 95 249
e 21 71
e 62 72
e 26 149
e 12 251
e 86 200
e 213 241
e 172 203
e 39 88
e 130 243
e 171 244
e 42 130
e 83 131
e 28 195
e 47 208
e 162 195
e 88 246
e 181 208
e 19 146
e 60 147
e 13 72
e 225 251
e 104 190
e 51 98
e 123 203
e 35 90
e 95 141
e 81 206
e 34 131
e 72 157
e 158 197
e 37 136
e 56 149
e 116 200
e 157 201
e 28 87
e 14 152
e 129 139
e 74 203
e 201 244
e 93 216
e 113 131
e 13 193
e 46 141
e 151 157
e 51 219
e 49 146
e 90 147
e 35 211
e 169 211
e 62 85
e 81 98
e 34 252
e 48 150
e 134 190
e 172 216
e 153 203
e 125 141
e 70 205
e 111 206
e 28 208
e 102 157
e 14 44
e 146 200
e 187 201
e 247 252
e 13 85
e 44 152
e 104 203
e 123 216
e 164 217
e 2 155
e 35 103
e 62 206
e 136 155
e 76 104
e 117 142
e 81 219
e 122 220
e 120 147
e 180 198
e 37 149
e 78 150
e 97 163
e 157 214
e 55 166
e 27 104
e 13 206
e 118 222
e 71 147
e 131 161
e 150 211
e 76 225
e 43 48
e 48 163
e 134 203
e 194 217
e 92 206
e 111 219
e 152 220
e 124 158
e 69 222
e 143 171
e 108 150
e 8 212
e 55 58
e 27 225
e 187 214
e 127 163
e 206 227
e 11 217
e 85 166
e 145 217
e 164 230
e 38 91
e 57 104
e 2 168
e 76 117
e 117 155
e 103 220
e 62 219
e 122 233
e 15 107
e 120 160
e 18 112
e 59 150
e 78 163
e 138 214
e 50 101
e 91 102
e 36 166
e 94 107
e 27 117
e 118 235
e 11 109
e 38 212
e 57 225
e 131 174
e 76 238
e 43 61
e 29 163
e 115 166
e 15 228
e 175 217
e 194 230
e 87 104
e 92 219
e 18 233
e 133 220
e 152 233
e 45 107
e 50 222
e 110 236
e 22 123
e 8 225
e 94 228
e 27 238
e 108 163
e 127 176
e 66 166
e 11 230
e 85 179
e 126 180
e 145 230
e 38 104
e 24 169
e 57 117
e 43 182
e 84 220
e 103 233
e 15 120
e 142 161
e 87 225
e 161 174
e 221 225
e 147 239
e 18 125
e 59 163
e 45 228
e 12 51
e 36 179
e 163 220
e 22 244
e 182 233
e 94 120
e 80 185
e 154 171
e 121 223
e 52 123
e 38 225
e 112 174
e 98 239
e 10 126
e 175 230
e 216 231
e 101 244
e 235 244
e 54 169
e 73 182
e 18 246
e 133 233
e 174 234
e 193 247
e 45 120
e 86 121
e 31 185
e 91 236
e 177 239
e 110 249
e 130 164
e 22 136
e 75 228
e 149 177
e 168 190
e 89 126
e 228 241
e 94 241
e 107 180
e 126 193
e 186 244
e 98 131
e 10 247
e 170 236
e 63 110
e 101 136
e 87 238
e 54 61
e 147 252
e 100 177
e 45 241
e 119 190
e 86 242
e 31 77
e 58 180
e 163 233
e 204 234
e 77 193
e 89 247
e 75 120
e 116 121
e 42 172
e 121 236
e 181 250
e 52 136
e 93 137
e 19 188
e 98 252
e 10 139
e 63 231
e 137 180
e 51 140
e 82 244
e 216 244
e 156 193
e 109 118
e 95 183
e 114 196
e 155 234
e 174 247
e 26 83
e 12 185
e 86 134
e 72 199
e 158 239
e 177 252
e 58 72
e 70 126
e 130 177
e 75 241
e 149 190
e 116 242
e 135 255
e 89 139
e 28 129
e 61 77
e 47 142
e 88 180
e 107 193
e 167 244
e 60 81
e 46 183
e 151 199
e 63 123
e 49 188
e 123 137
e 68 201
e 183 188
e 109 239
e 169 253
e 21 126
e 82 136
e 81 140
e 26 204
e 141 191
e 86 255
e 53 78
e 125 183
e 72 91
e 70 247
e 58 193
e 204 247
e 56 83
e 42 185
e 116 134
e 28 250
e 135 147
e 102 199
e 162 250
e 14 86
e 74 137
e 19 201
e 179 190
e 79 252
e 165 255
e 93 150
e 46 75
e 63 244
e 137 193
e 51 153
e 178 194
e 197 207
e 238 245
e 49 80
e 35 145
e 21 247
e 95 196
e 155 247
e 241 250
e 34 186
e 53 199
e 158 252
e 72 212
e 199 253
e 70 139
e 111 140
e 56 204
e 116 255
e 190 204
e 28 142
e 14 207
e 88 193
e 47 155
e 60 94
e 46 196
e 151 212
e 44 86
e 104 137
e 49 201
e 123 150
e 109 252
e 150 253
e 68 214
e 21 139
e 62 140
e 81 153
e 67 255
e 26 217
e 34 78
e 53 91
e 125 196
e 39 156
e 185 210
e 226 248
e 37 83
e 83 199
e 102 212
e 55 100
e 74 150
e 146 255
e 27 38
e 13 140
e 44 207
e 118 156
e 159 194
e 178 207
e 71 81
e 16 145
e 117 197
e 76 159
e 136 210
e 48 97
e 34 199
e 120 202
e 134 137
e 180 253
e 53 212
e 92 140
e 37 204
e 111 153
e 56 217
e 97 218
e 171 204
e 69 156
e 14 220
e 129 207
e 113 199
e 173 213
e 85 100
e 71 202
e 62 153
e 103 154
e 48 218
e 122 167
e 39 169
e 166 210
e 18 46
e 59 84
e 78 97
e 185 223
e 97 110
e 83 212
e 124 213
e 143 226
e 55 113
e 60 228
e 44 220
e 118 169
e 159 207
e 57 159
e 2 223
e 117 210
e 136 223
e 222 226
e 15 162
e 48 110
e 139 228
e 18 167
e 133 154
e 92 153
e 152 167
e 212 218
e 50 156
e 69 169
e 196 210
e 55 234
e 110 170
e 22 57
e 8 159
e 27 172
e 154 213
e 173 226
e 11 164
e 85 113
e 145 164
e 131 229
e 43 116
e 84 154
e 122 180
e 15 54
e 87 159
e 166 223
e 59 97
e 45 162
e 124 226
e 210 229
e 36 113
e 77 114
e 22 178
e 108 218
e 80 119
e 140 170
e 85 234
e 200 221
e 52 57
e 219 234
e 38 159
e 57 172
e 2 236
e 98 173
e 222 239
e 142 216
e 161 229
e 54 103
e 73 116
e 18 180
e 133 167
e 59 218
e 152 180
e 119 232
e 45 54
e 31 119
e 91 170
e 36 234
e 196 223
e 55 247
e 110 183
e 22 70
e 8 172
e 75 162
e 94 175
e 154 226
e 214 240
e 11 177
e 52 178
e 112 229
e 131 242
e 10 181
e 43 129
e 115 234
e 84 167
e 87 172
e 73 237
e 207 237
e 100 111
e 45 175
e 119 124
e 31 240
e 191 229
e 58 114
e 77 127
e 22 191
e 149 232
e 168 245
e 61 119
e 121 170
e 140 183
e 85 247
e 126 248
e 52 70
e 38 172
e 79 173
e 98 186
e 225 227
e 142 229
e 101 191
e 161 242
e 202 243
e 73 129
e 114 130
e 100 232
e 174 181
e 119 245
e 155 168
e 12 119
e 72 133
e 158 173
e 177 186
e 91 183
e 77 248
e 75 175
e 94 188
e 176 227
e 80 253
e 195 240
e 61 240
e 214 253
e 88 114
e 52 191
e 167 178
e 126 140
e 179 232
e 46 117
e 10 194
e 156 248
e 49 122
e 68 135
e 54 237
e 73 250
e 147 199
e 188 237
e 114 251
e 12 240
e 31 253
e 191 242
e 232 243
e 70 181
e 89 194
e 42 119
e 102 133
e 47 197
e 88 235
e 107 248
e 181 197
e 121 183
e 79 186
e 63 178
e 51 87
e 82 191
e 183 243
e 35 79
e 95 130
e 114 143
e 100 245
e 141 246
e 174 194
e 155 181
e 53 133
e 72 146
e 58 248
e 177 199
e 158 186
e 70 73
e 56 138
e 42 240
e 135 202
e 28 76
e 88 127
e 47 89
e 179 245
e 220 246
e 46 130
e 137 248
e 51 208
e 49 135
e 35 200
e 150 187
e 54 250
e 95 251
e 169 200
e 21 73
e 62 74
e 26 151
e 12 253
e 86 202
e 172 205
e 213 243
e 39 90
e 125 130
e 130 245
e 171 246
e 89 207
e 83 133
e 28 197
e 102 146
e 88 248
e 162 197
e 47 210
e 60 149
e 46 251
e 13 74
e 51 100
e 123 205
e 35 92
e 62 195
e 95 143
e 81 208
e 34 133
e 53 146
e 180 187
e 125 251
e 199 200
e 39 211
e 37 138
e 56 151
e 116 202
e 157 203
e 28 89
e 69 90
e 129 141
e 74 205
e 201 246
e 27 93
e 13 195
e 113 133
e 151 159
e 51 221
e 71 136
e 90 149
e 35 213
e 150 200
e 169 213
e 48 152
e 81 100
e 153 205
e 172 218
e 125 143
e 92 195
e 111 208
e 83 146
e 28 210
e 69 211
e 124 147
e 41 149
e 27 214
e 187 203
e 146 202
e 206 216
e 13 87
e 60 162
e 44 154
e 145 206
e 164 219
e 57 93
e 2 157
e 62 208
e 136 157
e 81 221
e 122 222
e 34 146
e 120 149
e 180 200
e 39 224
e 199 213
e 37 151
e 78 152
e 23 216
e 157 216
e 50 90
e 69 103
e 55 168
e 113 146
e 13 208
e 71 149
e 90 162
e 57 214
e 76 227
e 84 88
e 134 205
e 175 206
e 92 208
e 111 221
e 152 222
e 105 147
e 50 211
e 143 173
e 110 225
e 36 47
e 55 60
e 8 214
e 22 112
e 27 227
e 108 152
e 11 219
e 85 168
e 145 219
e 38 93
e 164 232
e 2 170
e 117 157
e 103 222
e 122 235
e 15 109
e 87 214
e 161 163
e 120 162
e 59 152
e 138 216
e 31 53
e 91 104
e 36 168
e 110 117
e 55 181
e 182 222
e 94 109
e 140 225
e 11 111
e 52 112
e 38 214
e 112 163
e 57 227
e 131 176
e 76 240
e 84 101
e 115 168
e 15 230
e 175 219
e 194 232
e 73 171
e 133 222
e 152 235
e 193 236
e 91 225
e 22 125
e 8 227
e 149 166
e 168 179
e 228 230
e 11 232
e 52 233
e 126 182
e 167 220
e 186 233
e 79 107
e 98 120
e 84 222
e 170 225
e 103 235
e 82 112
e 15 122
e 142 163
e 87 227
e 221 227
e 147 241
e 18 127
e 100 166
e 45 230
e 205 219
e 119 179
e 12 53
e 91 117
e 163 222
e 77 182
e 182 235
e 223 236
e 75 109
e 94 122
e 121 225
e 80 187
e 140 238
e 52 125
e 38 227
e 79 228
e 98 241
e 82 233
e 15 243
e 156 182
e 216 233
e 101 246
e 54 171
e 18 248
e 133 235
e 26 72
e 12 174
e 45 122
e 31 187
e 86 123
e 91 238
e 130 166
e 75 230
e 149 179
e 94 243
e 135 244
e 42 53
e 88 169
e 47 131
e 107 182
e 52 246
e 167 233
e 19 69
e 186 246
e 79 120
e 65 185
e 170 238
e 63 112
e 82 125
e 68 190
e 109 228
e 142 176
e 101 138
e 147 254
e 21 115
e 141 180
e 45 243
e 86 244
e 58 182
e 163 235
e 77 195
e 56 72
e 75 122
e 116 123
e 61 187
e 135 136
e 80 200
e 121 238
e 162 239
e 181 252
e 74 126
e 19 190
e 93 139
e 79 241
e 10 141
e 63 233
e 82 246
e 156 195
e 137 182
e 216 246
e 49 69
e 109 120
e 68 82
e 95 185
e 114 198
e 155 236
e 26 85
e 12 187
e 86 136
e 72 201
e 158 241
e 218 255
e 130 179
e 171 180
e 89 141
e 190 193
e 28 131
e 88 182
e 107 195
e 60 83
e 46 185
e 151 201
e 211 252
e 104 126
e 49 190
e 123 139
e 68 203
e 109 241
e 169 255
e 81 142
e 26 206
e 141 193
e 53 80
e 72 93
e 125 185
e 39 145
e 37 72
e 245 250
e 56 85
e 42 187
e 116 136
e 102 201
e 162 252
e 248 255
e 14 88
e 74 139
e 19 203
e 60 204
e 93 152
e 146 244
e 13 129
e 63 246
e 137 195
e 104 247
e 178 196
e 238 247
e 51 155
e 35 147
e 241 252
e 48 86
e 34 188
e 53 201
e 72 214
e 199 255
e 37 193
e 70 141
e 56 206
e 111 142
e 190 206
e 69 145
e 129 196
e 113 188
e 13 250
e 44 88
e 104 139
e 49 203
e 123 152
e 90 204
e 62 142
e 134 247
e 122 156
e 26 219
e 81 155
e 34 80
e 39 158
e 166 199
e 185 212
e 37 85
e 83 201
e 102 214
e 229 255
e 14 101
e 55 102
e 60 217
e 13 142
e 118 158
e 159 196
e 2 212
e 117 199
e 76 161
e 136 212
e 134 139
e 34 201
e 120 204
e 53 214
e 180 255
e 139 217
e 92 142
e 37 206
e 111 155
e 56 219
e 50 145
e 69 158
e 14 222
e 129 209
e 55 223
e 113 201
e 27 161
e 132 214
e 11 153
e 44 101
e 71 204
e 145 153
e 85 102
e 164 166
e 90 217
e 103 156
e 48 220
e 122 169
e 15 43
e 166 212
e 185 225
e 18 48
e 59 86
e 138 150
e 143 228
e 55 115
e 127 220
e 27 53
e 44 222
e 118 171
e 200 210
e 11 45
e 85 223
e 57 161
e 2 225
e 117 212
e 76 174
e 222 228
e 15 164
e 120 217
e 18 169
e 59 207
e 78 220
e 152 169
e 97 233
e 212 220
e 92 155
e 50 158
e 91 159
e 36 223
e 110 172
e 55 236
e 22 59
e 8 161
e 94 164
e 27 174
e 173 228
e 11 166
e 85 115
e 71 217
e 145 166
e 112 218
e 131 231
e 43 118
e 84 156
e 115 223
e 48 233
e 103 169
e 15 56
e 87 161
e 147 175
e 207 226
e 18 61
e 45 164
e 191 218
e 124 228
e 36 115
e 77 116
e 22 180
e 108 220
e 127 233
e 121 159
e 85 236
e 52 59
e 38 161
e 57 174
e 98 175
e 43 239
e 203 228
e 15 177
e 142 218
e 73 118
e 18 182
e 133 169
e 78 233
e 119 234
e 45 56
e 31 121
e 91 172
e 36 236
e 22 72
e 75 164
e 94 177
e 154 228
e 195 229
e 80 242
e 214 242
e 107 116
e 52 180
e 126 129
e 131 244
e 84 169
e 115 236
e 54 226
e 73 239
e 188 226
e 147 188
e 100 113
e 45 177
e 86 178
e 31 242
e 210 244
e 163 169
e 89 183
e 149 234
e 77 129
e 42 108
e 168 247
e 61 121
e 80 134
e 121 172
e 140 185
e 181 186
e 107 237
e 19 124
e 52 72
e 184 228
e 98 188
e 63 167
e 51 76
e 82 180
e 101 193
e 202 245
e 155 170
e 100 234
e 12 121
e 31 134
e 72 135
e 158 175
e 177 188
e 77 250
e 237 239
e 75 177
e 61 242
e 135 191
e 80 255
e 195 242
e 176 229
e 47 78
e 88 116
e 107 129
e 19 245
e 167 180
e 179 234
e 52 193
e 93 194
e 46 119
e 10 196
e 137 237
e 170 185
e 156 250
e 51 197
e 49 124
e 68 137
e 54 239
e 109 175
e 73 252
e 21 62
e 114 253
e 26 140
e 86 191
e 172 194
e 213 232
e 70 183
e 58 129
e 130 234
e 89 196
e 149 247
e 190 248
e 42 121
e 28 186
e 102 135
e 47 199
e 61 134
e 107 250
e 181 199
e 88 237
e 19 137
e 46 240
e 79 188
e 225 242
e 63 180
e 82 193
e 49 245
e 123 194
e 35 81
e 21 183
e 114 145
e 100 247
e 155 183
e 141 248
e 34 122
e 53 135
e 158 188
e 144 253
e 70 75
e 37 127
e 56 140
e 42 242
e 116 191
e 61 255
e 135 204
e 28 78
e 14 143
e 88 129
e 74 194
e 47 91
e 179 247
e 93 207
e 220 248
e 137 250
e 51 210
e 90 138
e 35 202
e 95 253
e 21 75
e 62 76
e 26 153
e 12 255
e 153 194
e 172 207
e 39 92
e 70 196
e 111 197
e 171 248
e 83 135
e 28 199
e 88 250
e 162 199
e 143 149
e 47 212
e 14 35
e 129 251
e 146 191
e 46 253
e 60 151
e 44 143
e 104 194
e 123 207
e 164 208
e 35 94
e 76 95
e 117 133
e 136 146
e 81 210
e 62 197
e 120 138
e 139 151
e 39 213
e 199 202
e 37 140
e 56 153
e 97 154
e 42 255
e 157 205
e 14 156
e 129 143
e 74 207
e 201 248
e 27 95
e 13 197
e 113 135
e 118 213
e 159 251
e 71 138
e 90 151
e 150 202
e 62 89
e 134 194
e 48 154
e 153 207
e 194 208
e 92 197
e 111 210
e 83 148
e 124 149
e 50 200
e 143 162
e 127 154
e 27 216
e 187 205
e 13 89
e 44 156
e 104 207
e 145 208
e 164 221
e 57 95
e 2 159
e 62 210
e 103 211
e 15 98
e 120 151
e 180 202
e 39 226
e 139 164
e 18 103
e 59 141
e 78 154
e 138 205
e 157 218
e 50 92
e 36 157
e 55 170
e 27 108
e 13 210
e 11 100
e 71 151
e 112 152
e 57 216
e 76 229
e 84 90
e 43 52
e 115 157
e 15 219
e 134 207
e 48 167
e 194 221
e 175 208
e 92 210
e 133 211
e 45 98
e 124 162
e 69 226
e 110 227
e 36 49
e 22 114
e 8 216
e 127 167
e 108 154
e 187 218
e 11 221
e 85 170
e 145 221
e 186 222
e 38 95
e 57 108
e 2 172
e 84 211
e 43 173
e 103 224
e 189 227
e 122 237
e 98 109
e 142 152
e 87 216
e 18 116
e 59 154
e 78 167
e 119 168
e 45 219
e 36 170
e 163 211
e 22 235
e 94 111
e 154 162
e 140 227
e 11 113
e 52 114
e 57 229
e 131 178
e 84 103
e 115 170
e 175 221
e 101 235
e 87 108
e 73 173
e 18 237
e 152 237
e 193 238
e 31 176
e 110 240
e 108 167
e 8 229
e 149 168
e 94 232
e 228 232
e 11 234
e 52 235
e 167 222
e 186 235
e 38 108
e 79 109
e 43 186
e 170 227
e 101 127
e 87 229
e 161 178
e 100 168
e 45 232
e 119 181
e 12 55
e 31 68
e 91 119
e 58 171
e 22 248
e 182 237
e 223 238
e 75 111
e 61 176
e 94 124
e 121 227
e 140 240
e 181 241
e 52 127
e 38 229
e 79 230
e 98 243
e 46 53
e 10 130
e 137 171
e 82 235
e 101 248
e 49 58
e 216 235
e 235 248
e 54 173
e 73 186
e 114 187
e 155 225
e 26 74
e 12 176
e 86 125
e 193 251
e 158 230
e 91 240
e 130 168
e 75 232
e 89 130
e 94 245
e 135 246
e 61 68
e 47 133
e 88 171
e 52 248
e 126 197
e 167 235
e 19 71
e 79 122
e 65 187
e 10 251
e 170 240
e 211 241
e 63 114
e 82 127
e 109 230
e 26 195
e 141 182
e 12 68
e 53 69
e 72 82
e 70 238
e 89 251
e 204 238
e 77 197
e 56 74
e 42 176
e 223 251
e 135 138
e 121 240
e 80 202
e 162 241
e 93 141
e 79 243
e 63 235
e 82 248
e 156 197
e 49 71
e 35 136
e 21 238
e 95 187
e 155 238
e 114 200
e 174 251
e 26 87
e 53 190
e 86 138
e 72 203
e 158 243
e 70 130
e 56 195
e 89 143
e 116 246
e 190 195
e 42 68
e 130 181
e 28 133
e 129 185
e 46 187
e 151 203
e 44 77
e 123 141
e 109 243
e 150 244
e 68 205
e 21 130
e 81 144
e 26 208
e 141 195
e 34 69
e 53 82
e 39 147
e 37 74
e 204 251
e 56 87
e 83 190
e 102 203
e 14 90
e 74 141
e 19 205
e 146 246
e 60 206
e 13 131
e 63 248
e 51 157
e 159 185
e 118 147
e 71 72
e 197 211
e 35 149
e 21 251
e 95 200
e 62 252
e 48 88
e 34 190
e 139 206
e 92 131
e 37 195
e 56 208
e 171 195
e 28 146
e 69 147
e 14 211
e 60 98
e 13 252
e 27 150
e 113 190
e 151 216
e 233 255
e 44 90
e 104 141
e 49 205
e 81 157
e 122 158
e 34 82
e 20 147
e 125 200
e 166 201
e 185 214
e 37 87
e 78 88
e 83 203
e 102 216
e 143 217
e 36 91
e 55 104
e 27 42
e 44 211
e 178 211
e 71 85
e 16 149
e 90 98
e 2 214
e 57 150
e 117 201
e 136 214
e 76 163
e 134 141
e 34 203
e 48 101
e 120 206
e 139 219
e 37 208
e 111 157
e 97 222
e 50 147
e 196 201
e 55 225
e 110 161
e 22 48
e 8 150
e 113 203
e 173 217
e 85 104
e 71 206
e 145 155
e 90 219
e 164 168
e 131 220
e 84 145
e 48 222
e 15 45
e 87 150
e 166 214
e 78 101
e 138 152
e 36 104
e 22 169
e 127 222
e 140 161
e 85 225
e 200 212
e 11 47
e 219 225
e 38 150
e 57 163
e 2 227
e 43 228
e 203 217
e 76 176
e 222 230
e 117 214
e 15 166
e 120 219
e 161 220
e 73 107
e 18 171
e 133 158
e 152 171
e 97 235
e 91 161
e 36 225
e 196 214
e 55 238
e 22 61
e 8 163
e 94 166
e 173 230
e 11 168
e 52 169
e 71 219
e 112 220
e 38 42
e 43 120
e 84 158
e 115 225
e 103 171
e 15 58
e 87 163
e 73 228
e 147 177
e 207 228
e 18 63
e 59 101
e 45 166
e 124 230
e 210 233
e 77 118
e 108 222
e 168 236
e 61 110
e 80 123
e 121 161
e 140 174
e 85 238
e 126 239
e 38 163
e 79 164
e 98 177
e 43 241
e 203 230
e 82 169
e 15 179
e 142 220
e 101 182
e 161 233
e 54 107
e 73 120
e 114 121
e 100 223
e 133 171
e 119 236
e 59 222
e 12 110
e 31 123
e 91 174
e 36 238
e 77 239
e 75 166
e 94 179
e 135 180
e 80 244
e 214 244
e 52 182
e 126 131
e 112 233
e 167 169
e 10 185
e 115 238
e 156 239
e 68 126
e 54 228
e 109 164
e 21 51
e 147 190
e 188 228
e 45 179
e 86 180
e 31 244
e 191 233
e 58 118
e 163 171
e 89 185
e 77 131
e 149 236
e 42 110
e 130 223
e 61 123
e 80 136
e 162 175
e 47 188
e 126 252
e 19 126
e 98 190
e 63 169
e 51 78
e 82 182
e 101 195
e 142 233
e 183 234
e 202 247
e 21 172
e 68 247
e 40 185
e 54 120
e 100 236
e 155 172
e 95 121
e 114 134
e 12 123
e 72 137
e 58 239
e 177 190
e 158 177
e 77 252
e 75 179
e 61 244
e 135 193
e 195 244
e 88 118
e 47 80
e 74 183
e 19 247
e 107 131
e 93 196
e 179 236
e 239 250
e 46 121
e 137 239
e 51 199
e 49 126
e 68 139
e 54 241
e 95 242
e 169 191
e 114 255
e 109 177
e 12 244
e 86 193
e 172 196
e 213 234
e 232 247
e 39 81
e 70 185
e 130 236
e 190 250
e 42 123
e 83 124
e 102 137
e 47 201
e 88 239
e 107 252
e 181 201
e 19 139
e 60 140
e 146 180
e 46 242
e 225 244
e 63 182
e 104 183
e 51 91
e 123 196
e 35 83
e 21 185
e 95 134
e 7 250
e 81 199
e 155 185
e 141 250
e 34 124
e 53 137
e 72 150
e 125 242
e 39 202
e 70 77
e 37 129
e 56 142
e 42 244
e 116 193
e 157 194
e 28 80
e 14 145
e 74 196
e 220 250
e 113 124
e 13 186
e 46 134
e 137 252
e 178 253
e 49 139
e 90 140
e 35 204
e 169 204
e 62 78
e 134 183
e 26 155
e 153 196
e 213 247
e 125 134
e 39 94
e 37 250
e 111 199
e 51 145
e 171 250
e 83 137
e 28 201
e 69 202
e 88 252
e 129 253
e 102 150
e 14 37
e 60 153
e 46 255
e 146 193
e 187 194
e 44 145
e 104 196
e 164 210
e 76 97
e 117 135
e 81 212
e 208 253
e 122 213
e 34 137
e 120 140
e 180 191
e 139 153
e 199 204
e 125 255
e 37 142
e 23 207
e 138 194
e 97 156
e 157 207
e 56 155
e 69 94
e 129 145
e 55 159
e 201 250
e 27 97
e 13 199
e 113 137
e 159 253
e 11 89
e 71 140
e 90 153
e 35 217
e 76 218
e 150 204
e 62 91
e 48 156
e 92 199
e 111 212
e 152 213
e 50 202
e 124 151
e 143 164
e 108 143
e 8 205
e 127 156
e 27 218
e 187 207
e 206 220
e 44 158
e 85 159
e 164 223
e 38 84
e 57 97
e 2 161
e 76 110
e 62 212
e 103 213
e 122 226
e 15 100
e 120 153
e 180 204
e 59 143
e 78 156
e 97 169
e 138 207
e 50 94
e 36 159
e 55 172
e 94 100
e 27 110
e 118 228
e 11 102
e 71 153
e 112 154
e 57 218
e 131 167
e 38 205
e 115 159
e 48 169
e 15 221
e 175 210
e 87 97
e 18 226
e 133 213
e 92 212
e 152 226
e 45 100
e 91 216
e 124 164
e 110 229
e 22 116
e 8 218
e 94 221
e 168 170
e 108 156
e 127 169
e 11 223
e 145 223
e 38 97
e 57 110
e 98 111
e 84 213
e 103 226
e 15 113
e 87 218
e 147 232
e 18 118
e 59 156
e 45 221
e 119 170
e 205 210
e 31 57
e 91 108
e 36 172
e 163 213
e 22 237
e 182 226
e 75 100
e 94 113
e 121 216
e 154 164
e 80 178
e 38 218
e 98 232
e 10 119
e 115 172
e 15 234
e 175 223
e 101 237
e 87 110
e 73 175
e 18 239
e 133 226
e 174 227
e 193 240
e 45 113
e 86 114
e 31 178
e 91 229
e 177 232
e 110 242
e 130 157
e 22 129
e 75 221
e 94 234
e 168 183
e 89 119
e 228 234
e 149 170
e 52 237
e 126 186
e 19 60
e 186 237
e 10 240
e 43 188
e 170 229
e 63 103
e 84 226
e 82 116
e 101 129
e 147 245
e 100 170
e 45 234
e 205 223
e 12 57
e 31 70
e 58 173
e 77 186
e 22 250
e 204 227
e 223 240
e 75 113
e 61 178
e 80 191
e 121 229
e 140 242
e 181 243
e 52 129
e 19 181
e 79 232
e 93 130
e 98 245
e 137 173
e 51 133
e 156 186
e 101 250
e 216 237
e 49 60
e 68 73
e 54 175
e 82 237
e 40 240
e 114 189
e 73 188
e 155 227
e 174 240
e 26 76
e 12 178
e 193 253
e 158 232
e 177 245
e 70 119
e 75 234
e 149 183
e 116 235
e 42 57
e 135 248
e 28 122
e 61 70
e 47 135
e 88 173
e 52 250
e 93 251
e 167 237
e 19 73
e 60 74
e 126 199
e 79 124
e 46 176
e 10 253
e 170 242
e 63 116
e 82 129
e 68 194
e 109 232
e 169 246
e 21 119
e 81 133
e 26 197
e 141 184
e 86 248
e 172 251
e 53 71
e 72 84
e 70 240
e 89 253
e 37 63
e 204 240
e 223 253
e 42 178
e 116 127
e 56 76
e 176 178
e 102 192
e 135 140
e 61 191
e 162 243
e 74 130
e 146 235
e 93 143
e 79 245
e 63 237
e 137 186
e 82 250
e 51 146
e 197 200
e 49 73
e 35 138
e 21 240
e 155 240
e 241 243
e 12 191
e 72 205
e 199 246
e 158 245
e 111 133
e 56 197
e 116 248
e 190 197
e 28 135
e 88 186
e 129 187
e 74 251
e 234 240
e 60 87
e 151 205
e 104 130
e 49 194
e 123 143
e 68 207
e 109 245
e 62 133
e 81 146
e 26 210
e 141 197
e 153 251
e 34 71
e 53 84
e 39 149
e 70 253
e 226 241
e 185 203
e 56 89
e 42 191
e 102 205
e 229 246
e 14 92
e 74 143
e 60 208
e 13 133
e 44 200
e 118 149
e 104 251
e 159 187
e 178 200
e 71 74
e 238 251
e 35 151
e 21 253
e 95 202
e 76 152
e 53 205
e 139 208
e 92 133
e 111 146
e 56 210
e 97 211
e 171 197
e 50 136
e 69 149
e 14 213
e 129 200
e 113 192
e 27 152
e 151 218
e 44 92
e 90 208
e 62 146
e 103 147
e 134 251
e 48 211
e 15 34
e 6 214
e 39 162
e 166 203
e 185 216
e 18 39
e 59 77
e 83 205
e 124 206
e 143 219
e 36 93
e 127 211
e 60 221
e 27 44
e 13 146
e 159 200
e 118 162
e 11 36
e 57 152
e 2 216
e 117 203
e 136 216
e 48 103
e 34 205
e 120 208
e 139 221
e 92 146
e 133 147
e 37 210
e 78 211
e 50 149
e 36 214
e 196 203
e 55 227
e 110 163
e 22 50
e 113 205
e 154 206
e 173 219
e 11 157
e 71 208
e 145 157
e 90 221
e 131 222
e 43 109
e 84 147
e 87 152
e 166 216
e 207 217
e 18 52
e 59 90
e 45 155
e 124 219
e 210 222
e 143 232
e 108 211
e 140 163
e 85 227
e 11 49
e 219 227
e 38 152
e 98 166
e 43 230
e 222 232
e 15 168
e 101 171
e 161 222
e 73 109
e 18 173
e 133 160
e 59 211
e 152 173
e 119 225
e 31 112
e 17 214
e 91 163
e 36 227
e 196 216
e 55 240
e 110 176
e 75 155
e 94 168
e 173 232
e 214 233
e 11 170
e 52 171
e 112 222
e 131 235
e 43 122
e 73 230
e 188 217
e 100 104
e 45 168
e 31 233
e 191 222
e 210 235
e 58 107
e 77 120
e 149 225
e 168 238
e 61 112
e 80 125
e 121 163
e 140 176
e 126 241
e 52 63
e 79 166
e 43 243
e 142 222
e 161 235
e 202 236
e 54 109
e 73 122
e 155 161
e 100 225
e 119 238
e 12 112
e 31 125
e 158 166
e 58 228
e 177 179
e 77 241
e 91 176
e 75 168
e 61 233
e 135 182
e 176 220
e 195 233
e 94 181
e 88 107
e 80 246
e 107 120
e 167 171
e 93 185
e 126 133
e 179 225
e 112 235
e 10 187
e 170 176
e 115 240
e 156 241
e 109 166
e 54 230
e 146 203
e 73 243
e 188 230
e 114 244
e 26 131
e 12 233
e 31 246
e 191 235
e 70 174
e 89 187
e 149 238
e 42 112
e 168 251
e 121 176
e 47 190
e 107 241
e 181 190
e 88 228
e 162 177
e 80 138
e 79 179
e 225 233
e 244 246
e 123 185
e 142 235
e 183 236
e 35 72
e 21 174
e 95 123
e 114 136
e 100 238
e 174 187
e 141 239
e 26 252
e 12 125
e 53 126
e 155 174
e 72 139
e 158 179
e 177 192
e 58 241
e 56 131
e 42 233
e 116 182
e 61 246
e 135 195
e 176 233
e 28 69
e 195 246
e 47 82
e 74 185
e 179 238
e 239 252
e 46 123
e 137 241
e 51 201
e 197 255
e 68 141
e 54 243
e 150 180
e 169 193
e 109 179
e 95 244
e 12 246
e 86 195
e 53 247
e 213 236
e 39 83
e 70 187
e 89 200
e 56 252
e 171 239
e 130 238
e 42 125
e 83 126
e 28 190
e 102 139
e 88 241
e 162 190
e 47 203
e 19 141
e 60 142
e 46 244
e 165 195
e 146 182
e 51 93
e 35 85
e 21 187
e 62 188
e 81 201
e 141 252
e 227 255
e 34 126
e 53 139
e 72 152
e 125 244
e 39 204
e 37 131
e 42 246
e 116 195
e 83 247
e 157 196
e 28 82
e 69 83
e 14 147
e 201 239
e 113 126
e 13 188
e 27 86
e 32 201
e 151 152
e 118 204
e 178 255
e 51 214
e 90 142
e 35 206
e 150 193
e 169 206
e 62 80
e 48 145
e 81 93
e 34 247
e 134 185
e 172 211
e 125 136
e 37 252
e 111 201
e 171 252
e 83 139
e 69 204
e 143 153
e 129 255
e 146 195
e 113 247
e 60 155
e 187 196
e 13 80
e 44 147
e 145 199
e 164 212
e 57 86
e 117 137
e 62 201
e 81 214
e 208 255
e 34 139
e 120 142
e 180 193
e 78 145
e 97 158
e 138 196
e 50 83
e 55 161
e 201 252
e 113 139
e 25 255
e 13 201
e 118 217
e 11 91
e 71 142
e 57 207
e 131 156
e 90 155
e 48 158
e 175 199
e 194 212
e 92 201
e 111 214
e 124 153
e 69 217
e 110 218
e 108 145
e 8 207
e 127 158
e 27 220
e 11 212
e 85 161
e 145 212
e 164 225
e 38 86
e 2 163
e 43 164
e 84 202
e 76 112
e 117 150
e 122 228
e 87 207
e 120 155
e 18 107
e 59 145
e 78 158
e 23 222
e 97 171
e 31 46
e 91 97
e 36 161
e 55 174
e 94 102
e 140 218
e 38 207
e 112 156
e 57 220
e 131 169
e 43 56
e 103 107
e 15 223
e 175 212
e 115 161
e 194 225
e 73 164
e 18 228
e 133 215
e 152 228
e 193 229
e 45 102
e 105 153
e 50 217
e 91 218
e 108 158
e 8 220
e 94 223
e 11 225
e 85 174
e 30 238
e 167 213
e 186 226
e 79 100
e 24 164
e 98 113
e 84 215
e 43 177
e 103 228
e 170 218
e 15 115
e 142 156
e 101 118
e 161 169
e 87 220
e 147 234
e 100 159
e 45 223
e 119 172
e 12 46
e 31 59
e 91 110
e 36 174
e 77 175
e 182 228
e 223 229
e 75 102
e 94 115
e 80 180
e 121 218
e 38 220
e 112 169
e 79 221
e 98 234
e 115 174
e 15 236
e 156 175
e 216 226
e 101 239
e 54 164
e 73 177
e 18 241
e 133 228
e 174 229
e 193 242
e 12 167
e 86 116
e 31 180
e 45 115
e 91 231
e 177 234
e 149 172
e 94 236
e 47 124
e 107 175
e 52 239
e 167 226
e 126 188
e 19 62
e 186 239
e 79 113
e 24 177
e 98 126
e 10 242
e 82 118
e 101 131
e 68 183
e 142 169
e 109 221
e 21 108
e 54 56
e 147 247
e 100 172
e 45 236
e 86 237
e 119 185
e 12 59
e 58 175
e 163 228
e 22 252
e 89 242
e 77 188
e 75 115
e 42 167
e 61 180
e 223 242
e 80 193
e 162 232
e 74 119
e 19 183
e 98 247
e 10 134
e 137 175
e 51 135
e 63 226
e 101 252
e 216 239
e 49 62
e 68 75
e 109 113
e 95 178
e 54 177
e 155 229
e 114 191
e 174 242
e 26 78
e 31 193
e 158 234
e 72 194
e 177 247
e 218 248
e 70 121
e 130 172
e 75 236
e 116 237
e 89 134
e 135 250
e 47 137
e 88 175
e 52 252
e 93 253
e 19 75
e 60 76
e 46 178
e 10 255
e 151 194
e 211 245
e 63 118
e 104 119
e 49 183
e 109 234
e 169 248
e 21 121
e 81 135
e 26 199
e 141 186
e 86 250
e 172 253
e 53 73
e 125 178
e 70 242
e 58 188
e 89 255
e 39 138
e 204 242
e 56 78
e 42 180
e 116 129
e 28 245
e 102 194
e 61 193
e 162 245
e 14 81
e 146 237
e 93 145
e 165 250
e 13 122
e 46 70
e 63 239
e 104 240
e 137 188
e 123 253
e 238 240
e 49 75
e 197 202
e 35 140
e 114 204
e 34 181
e 53 194
e 72 207
e 199 248
e 37 186
e 111 135
e 56 199
e 116 250
e 190 199
e 157 251
e 28 137
e 69 138
e 14 202
e 88 188
e 74 253
e 60 89
e 46 191
e 151 207
e 44 81
e 49 196
e 123 145
e 90 197
e 150 248
e 62 135
e 134 240
e 122 149
e 26 212
e 153 253
e 34 73
e 125 191
e 70 255
e 39 151
e 185 205
e 37 78
e 83 194
e 102 207
e 143 208
e 14 94
e 55 95
e 146 250
e 60 210
e 13 135
e 44 202
e 118 151
e 104 253
e 178 202
e 71 76
e 238 253
e 2 205
e 35 153
e 76 154
e 136 205
e 48 92
e 53 207
e 180 248
e 139 210
e 92 135
e 37 199
e 56 212
e 97 213
e 138 251
e 69 151
e 55 216
e 129 202
e 8 141
e 27 154
e 113 194
e 173 208
e 11 146
e 44 94
e 71 197
e 90 210
e 217 251
e 103 149
e 48 213
e 122 162
e 134 253
e 15 36
e 20 151
e 166 205
e 59 79
e 78 92
e 83 207
e 124 208
e 143 221
e 36 95
e 55 108
e 127 213
e 27 46
e 85 216
e 118 164
e 11 38
e 159 202
e 38 141
e 57 154
e 2 218
e 76 167
e 203 208
e 136 218
e 15 157
e 120 210
e 139 223
e 18 162
e 133 149
e 59 200
e 152 162
e 97 226
e 78 213
e 91 152
e 36 216
e 55 229
e 22 52
e 8 154
e 94 157
e 27 167
e 154 208
e 113 207
e 173 221
e 85 108
e 71 210
e 145 159
e 112 211
e 43 111
e 84 149
e 103 162
e 48 226
e 115 216
e 15 49
e 87 154
e 147 168
e 166 218
e 18 54
e 59 92
e 45 157
e 124 221
e 36 108
e 108 213
e 22 173
e 127 226
e 168 227
e 80 114
e 121 152
e 85 229
e 219 229
e 38 154
e 57 167
e 98 168
e 43 232
e 203 221
e 222 234
e 101 173
e 142 211
e 54 98
e 73 111
e 59 213
e 133 162
e 78 226
e 45 49
e 31 114
e 17 216
e 36 229
e 77 230
e 110 178
e 75 157
e 94 170
e 154 221
e 80 235
e 214 235
e 52 173
e 131 237
e 10 176
e 43 124
e 115 229
e 84 162
e 54 219
e 87 167
e 73 232
e 147 181
e 188 219
e 207 232
e 45 170
e 86 171
e 31 235
e 210 237
e 58 109
e 89 176
e 22 186
e 77 122
e 149 227
e 168 240
e 108 226
e 61 114
e 80 127
e 107 230
e 140 178
e 126 243
e 19 117
e 43 245
e 51 69
e 82 173
e 101 186
e 161 237
e 202 238
e 54 111
e 114 125
e 100 227
e 155 163
e 119 240
e 12 114
e 158 168
e 58 230
e 77 243
e 75 170
e 116 171
e 61 235
e 176 222
e 80 248
e 28 58
e 214 248
e 47 71
e 88 109
e 19 238
e 167 173
e 93 187
e 198 240
e 179 227
e 52 186
e 46 112
e 137 230
e 156 243
e 49 117
e 109 168
e 54 232
e 73 245
e 169 182
e 21 55
e 26 133
e 191 237
e 70 176
e 130 227
e 149 240
e 190 241
e 42 114
e 88 230
e 107 243
e 19 130
e 146 171
e 46 233
e 79 181
e 225 235
e 244 248
e 63 173
e 51 82
e 49 238
e 82 186
e 68 251
e 183 238
e 202 251
e 95 125
e 155 176
e 114 138
e 141 241
e 12 127
e 72 141
e 158 181
e 58 243
e 42 235
e 61 248
e 135 197
e 176 235
e 28 71
e 88 122
e 14 136
e 74 187
e 19 251
e 47 84
e 93 200
e 220 241
e 46 125
e 137 243
e 51 203
e 49 130
e 68 143
e 109 181
e 95 246
e 21 68
e 62 69
e 26 146
e 153 187
e 12 248
e 172 200
e 213 238
e 232 251
e 39 85
e 111 190
e 130 240
e 171 241
e 102 141
e 88 243
e 129 244
e 47 205
e 14 28
e 60 144
e 46 246
e 13 69
e 44 136
e 104 187
e 49 251
e 123 200
e 164 201
e 183 251
e 35 87
e 117 126
e 81 203
e 141 254
e 53 141
e 180 182
e 39 206
e 125 246
e 37 133
e 56 146
e 42 248
e 97 147
e 138 185
e 50 72
e 14 149
e 74 200
e 201 241
e 13 190
e 151 154
e 159 244
e 71 131
e 35 208
e 150 195
e 62 82
e 48 147
e 134 187
e 153 200
e 194 201
e 213 251
e 92 190
e 39 98
e 111 203
e 212 255
e 83 141
e 50 193
e 69 206
e 124 142
e 127 147
e 60 157
e 13 82
e 44 149
e 71 252
e 145 201
e 164 214
e 57 88
e 2 152
e 62 203
e 103 204
e 122 217
e 15 91
e 180 195
e 139 157
e 39 219
e 37 146
e 78 147
e 157 211
e 50 85
e 69 98
e 36 150
e 96 201
e 160 216
e 201 254
e 242 255
e 27 101
e 113 141
e 118 219
e 11 93
e 90 157
e 76 222
e 134 200
e 175 201
e 87 88
e 92 203
e 133 204
e 45 91
e 50 206
e 69 219
e 143 168
e 110 220
e 36 42
e 22 107
e 108 147
e 27 222
e 187 211
e 11 214
e 85 163
e 30 227
e 145 214
e 38 88
e 57 101
e 43 166
e 84 204
e 103 217
e 122 230
e 15 104
e 101 107
e 106 222
e 18 109
e 59 147
e 119 161
e 64 225
e 31 48
e 36 163
e 163 204
e 22 228
e 182 217
e 55 176
e 94 104
e 140 220
e 52 107
e 112 158
e 76 235
e 115 163
e 15 225
e 175 214
e 87 101
e 73 166
e 18 230
e 133 217
e 152 230
e 193 231
e 45 104
e 31 169
e 91 220
e 110 233
e 22 120
e 8 222
e 94 225
e 149 161
e 11 227
e 52 228
e 126 177
e 85 176
e 186 228
e 43 179
e 84 217
e 170 220
e 82 107
e 87 222
e 161 171
e 147 236
e 100 161
e 45 225
e 205 214
e 119 174
e 12 48
e 31 61
e 91 112
e 58 164
e 163 217
e 77 177
e 182 230
e 75 104
e 61 169
e 94 117
e 80 182
e 140 233
e 181 234
e 52 120
e 38 222
e 93 121
e 112 171
e 98 236
e 115 176
e 15 238
e 156 177
e 216 228
e 82 228
e 235 241
e 73 179
e 114 180
e 18 243
e 193 244
e 31 182
e 91 233
e 177 236
e 89 123
e 130 161
e 75 225
e 149 174
e 42 48
e 168 187
e 135 239
e 94 238
e 88 164
e 47 126
e 107 177
e 52 241
e 79 115
e 211 234
e 63 107
e 82 120
e 68 185
e 109 223
e 21 110
e 26 188
e 141 175
e 86 239
e 100 174
e 12 61
e 53 62
e 58 177
e 77 190
e 89 244
e 223 244
e 42 169
e 61 182
e 121 233
e 162 234
e 80 195
e 47 247
e 74 121
e 19 185
e 93 134
e 79 236
e 46 59
e 63 228
e 137 177
e 82 241
e 156 190
e 51 137
e 35 129
e 54 179
e 95 180
e 114 193
e 174 244
e 26 80
e 12 182
e 86 131
e 53 183
e 72 196
e 158 236
e 70 123
e 130 174
e 116 239
e 135 252
e 28 126
e 88 177
e 47 139
e 107 190
e 93 255
e 60 78
e 46 180
e 151 196
e 211 247
e 63 120
e 49 185
e 123 134
e 109 236
e 183 185
e 150 237
e 169 250
e 21 123
e 81 137
e 26 201
e 141 188
e 86 252
e 34 62
e 172 255
e 53 75
e 125 180
e 70 244
e 144 193
e 39 140
e 204 244
e 56 80
e 42 182
e 116 131
e 28 247
e 102 196
e 83 183
e 162 247
e 248 250
e 14 83
e 74 134
e 146 239
e 60 199
e 13 124
e 32 137
e 63 241
e 104 242
e 178 191
e 137 190
e 238 242
e 16 129
e 118 140
e 35 142
e 21 244
e 95 193
e 136 194
e 48 81
e 34 183
e 53 196
e 139 199
e 180 237
e 199 250
e 37 188
e 111 137
e 56 201
e 116 252
e 190 201
e 28 139
e 69 140
e 14 204
e 129 191
e 74 255
e 60 91
e 13 245
e 46 193
e 192 247
e 44 83
e 104 134
e 90 199
e 150 250
e 62 137
e 81 150
e 122 151
e 134 242
e 48 202
e 153 255
e 125 193
e 166 194
e 39 153
e 185 207
e 37 80
e 78 81
e 83 196
e 229 250
e 143 210
e 55 97
e 146 252
e 187 253
e 60 212
e 27 35
e 118 153
e 104 255
e 178 204
e 57 143
e 2 207
e 117 194
e 76 156
e 136 207
e 48 94
e 34 196
e 120 199
e 180 250
e 139 212
e 92 137
e 37 201
e 138 253
e 50 140
e 69 153
e 110 154
e 129 204
e 55 218
e 8 143
e 27 156
e 113 196
e 173 210
e 85 97
e 90 212
e 131 213
e 217 253
e 84 138
e 43 100
e 103 151
e 134 255
e 122 164
e 87 143
e 20 153
e 18 43
e 4 145
e 185 220
e 138 145
e 124 210
e 143 223
e 36 97
e 108 202
e 55 110
e 140 154
e 159 204
e 85 218
e 44 217
e 38 143
e 2 220
e 43 221
e 76 169
e 117 207
e 120 212
e 161 213
e 73 100
e 18 164
e 133 151
e 59 202
e 152 164
e 97 228
e 50 153
e 91 154
e 196 207
e 110 167
e 94 159
e 154 210
e 173 223
e 11 161
e 85 110
e 71 212
e 131 226
e 84 151
e 43 113
e 103 164
e 115 218
e 15 51
e 87 156
e 188 208
e 147 170
e 207 221
e 18 56
e 59 94
e 45 159
e 105 210
e 124 223
e 210 226
e 36 110
e 77 111
e 108 215
e 22 175
e 127 228
e 168 229
e 121 154
e 80 116
e 140 167
e 200 218
e 126 232
e 38 156
e 79 157
e 98 170
e 43 234
e 82 162
e 15 172
e 101 175
e 142 213
e 54 100
e 73 113
e 18 177
e 133 164
e 100 216
e 119 229
e 12 103
e 31 116
e 91 167
e 75 159
e 94 172
e 135 173
e 154 223
e 47 60
e 214 237
e 52 175
e 112 226
e 156 232
e 109 157
e 68 119
e 54 221
e 73 234
e 21 44
e 188 221
e 147 183
e 207 234
e 45 172
e 86 173
e 31 237
e 191 226
e 210 239
e 58 111
e 77 124
e 22 188
e 89 178
e 130 216
e 42 103
e 149 229
e 61 116
e 168 242
e 80 129
e 162 168
e 107 232
e 121 167
e 126 245
e 19 119
e 79 170
e 98 183
e 63 162
e 51 71
e 82 175
e 68 240
e 183 227
e 101 188
e 142 226
e 54 113
e 202 240
e 95 114
e 114 127
e 100 229
e 174 178
e 119 242
e 12 116
e 31 129
e 72 130
e 158 170
e 58 232
e 116 173
e 61 237
e 135 186
e 80 250
e 195 237
e 47 73
e 88 111
e 74 176
e 19 240
e 179 229
e 239 243
e 46 114
e 10 191
e 137 232
e 49 119
e 109 170
e 54 234
e 95 235
e 21 57
e 114 248
e 26 135
e 12 237
e 86 186
e 31 250
e 72 251
e 213 227
e 39 74
e 58 124
e 70 178
e 89 191
e 130 229
e 149 242
e 190 243
e 42 116
e 28 181
e 102 130
e 88 232
e 61 129
e 107 245
e 181 194
e 47 194
e 60 133
e 46 235
e 146 173
e 65 248
e 151 251
e 13 58
e 225 237
e 104 176
e 49 240
e 51 84
e 68 253
e 183 240
e 202 253
e 21 178
e 35 76
e 81 192
e 141 243
e 34 117
e 53 130
e 72 143
e 125 235
e 58 245
e 37 122
e 56 135
e 42 237
e 116 186
e 61 250
e 157 187
e 102 251
e 28 73
e 69 74
e 176 237
e 19 253
e 93 202
e 220 243
e 46 127
e 137 245
e 178 246
e 90 133
e 35 197
e 95 248
e 169 197
e 62 71
e 134 176
e 34 238
e 53 251
e 172 202
e 213 240
e 232 253
e 39 87
e 37 243
e 171 243
e 28 194
e 102 143
e 88 245
e 129 246
e 60 146
e 46 248
e 13 71
e 44 138
e 49 253
e 90 254
e 123 202
e 164 203
e 2 141
e 35 89
e 76 90
e 81 205
e 208 246
e 120 133
e 53 143
e 39 208
e 125 248
e 37 135
e 97 149
e 138 187
e 157 200
e 83 251
e 50 74
e 69 87
e 14 151
e 129 138
e 55 152
e 201 243
e 113 130
e 118 208
e 11 82
e 71 133
e 90 146
e 35 210
e 150 197
e 76 211
e 34 251
e 153 202
e 111 205
e 152 206
e 50 195
e 83 143
e 69 208
e 143 157
e 127 149
e 27 211
e 187 200
e 113 251
e 206 213
e 247 251
e 44 151
e 85 152
e 145 203
e 38 77
e 164 216
e 2 154
e 76 103
e 117 141
e 136 154
e 103 206
e 122 219
e 62 205
e 15 93
e 120 146
e 180 197
e 39 221
e 18 98
e 59 136
e 78 149
e 97 162
e 50 87
e 36 152
e 182 206
e 27 103
e 118 221
e 11 95
e 71 146
e 112 147
e 57 211
e 115 152
e 15 214
e 48 162
e 175 203
e 194 216
e 87 90
e 18 219
e 133 206
e 92 205
e 45 93
e 50 208
e 124 157
e 69 221
e 110 222
e 22 109
e 8 211
e 127 162
e 11 216
e 145 216
e 38 90
e 57 103
e 43 168
e 84 206
e 103 219
e 18 111
e 59 149
e 45 214
e 119 163
e 64 227
e 78 162
e 31 50
e 91 101
e 36 165
e 110 114
e 22 230
e 163 206
e 77 166
e 75 93
e 182 219
e 80 171
e 140 222
e 52 109
e 38 211
e 98 225
e 131 173
e 84 98
e 15 227
e 175 216
e 101 230
e 87 103
e 54 155
e 73 168
e 18 232
e 133 219
e 174 220
e 86 107
e 31 171
e 91 222
e 110 235
e 75 214
e 22 122
e 94 227
e 149 163
e 108 162
e 11 229
e 107 166
e 167 217
e 126 179
e 19 53
e 186 230
e 79 104
e 52 230
e 10 233
e 43 181
e 170 222
e 84 219
e 82 109
e 101 122
e 161 173
e 147 238
e 100 163
e 45 227
e 205 216
e 119 176
e 12 50
e 58 166
e 163 219
e 22 243
e 223 233
e 61 171
e 121 222
e 140 235
e 181 236
e 52 122
e 93 123
e 79 225
e 98 238
e 10 125
e 137 166
e 82 230
e 156 179
e 101 243
e 216 230
e 54 168
e 73 181
e 155 220
e 114 182
e 174 233
e 193 246
e 26 69
e 12 171
e 86 120
e 72 185
e 158 225
e 177 238
e 70 112
e 89 125
e 75 227
e 149 176
e 94 240
e 135 241
e 28 115
e 33 230
e 107 179
e 52 243
e 93 244
e 46 169
e 79 117
e 10 246
e 211 236
e 63 109
e 49 174
e 68 187
e 109 225
e 21 112
e 147 251
e 81 126
e 26 190
e 141 177
e 100 176
e 86 241
e 70 233
e 58 179
e 89 246
e 204 233
e 56 69
e 42 171
e 116 120
e 102 185
e 47 249
e 162 236
e 14 72
e 74 123
e 19 187
e 146 228
e 79 238
e 93 136
e 46 61
e 63 230
e 137 179
e 82 243
e 123 244
e 68 79
e 21 233
e 95 182
e 114 195
e 155 233
e 26 82
e 53 185
e 158 238
e 218 252
e 70 125
e 56 190
e 171 177
e 116 241
e 130 176
e 14 193
e 129 180
e 74 244
e 47 141
e 88 179
e 60 80
e 46 182
e 44 72
e 104 123
e 49 187
e 123 136
e 35 252
e 183 187
e 109 238
e 68 200
e 21 125
e 169 252
e 150 239
e 81 139
e 153 244
e 141 190
e 53 77
e 125 182
e 70 246
e 39 142
e 226 234
e 185 196
e 245 247
e 83 185
e 229 239
e 14 85
e 41 188
e 74 136
e 60 201
e 206 255
e 13 126
e 44 193
e 159 180
e 104 244
e 178 193
e 118 142
e 197 206
e 238 244
e 21 246
e 62 247
e 95 195
e 136 196
e 34 185
e 180 239
e 199 252
e 92 126
e 37 190
e 111 139
e 56 203
e 97 204
e 171 190
e 157 255
e 50 129
e 69 142
e 129 193
e 113 185
e 13 247
e 60 93
e 27 145
e 13 18
e 233 250
e 151 211
e 44 85
e 71 188
e 90 201
e 236 255
e 62 139
e 103 140
e 48 204
e 122 153
e 134 244
e 125 195
e 166 196
e 39 155
e 226 247
e 92 247
e 83 198
e 124 199
e 143 212
e 36 86
e 96 137
e 127 204
e 60 214
e 187 255
e 27 37
e 13 139
e 44 206
e 118 155
e 159 193
e 178 206
e 57 145
e 117 196
e 76 158
e 134 136
e 120 201
e 180 252
e 139 214
e 37 203
e 78 204
e 138 255
e 50 142
e 69 155
e 110 156
e 55 220
e 36 207
e 22 43
e 8 145
e 27 158
e 154 199
e 173 212
e 11 150
e 71 201
e 90 214
e 131 215
e 217 255
e 43 102
e 84 140
e 48 217
e 122 166
e 18 45
e 4 147
e 59 83
e 64 161
e 124 212
e 143 225
e 22 164
e 55 112
e 127 217
e 85 220
e 38 145
e 57 158
e 2 222
e 98 159
e 43 223
e 203 212
e 222 225
e 15 161
e 120 214
e 73 102
e 18 166
e 133 153
e 78 217
e 119 218
e 152 166
e 59 204
e 17 207
e 91 156
e 36 220
e 110 169
e 55 233
e 22 56
e 8 158
e 94 161
e 154 212
e 173 225
e 214 226
e 11 163
e 85 112
e 131 228
e 43 115
e 84 153
e 115 220
e 87 158
e 73 223
e 188 210
e 147 172
e 45 161
e 31 226
e 210 228
e 58 100
e 77 113
e 22 177
e 149 218
e 108 217
e 80 118
e 121 156
e 140 169
e 85 233
e 52 56
e 79 159
e 184 212
e 43 236
e 203 225
e 98 172
e 82 164
e 101 177
e 161 228
e 202 229
e 54 102
e 73 115
e 18 179
e 59 217
e 100 218
e 91 169
e 77 234
e 75 161
e 94 174
e 176 213
e 80 239
e 61 226
e 214 239
e 33 164
e 107 113
e 52 177
e 88 100
e 10 180
e 115 233
e 156 234
e 68 121
e 54 223
e 109 159
e 147 185
e 21 46
e 114 237
e 26 124
e 12 226
e 31 239
e 191 228
e 58 113
e 89 180
e 130 218
e 168 244
e 61 118
e 80 131
e 162 170
e 107 234
e 181 183
e 126 247
e 121 169
e 88 221
e 47 183
e 79 172
e 63 164
e 51 73
e 82 177
e 68 242
e 183 229
e 202 242
e 21 167
e 95 116
e 54 115
e 155 167
e 100 231
e 174 180
e 141 232
e 114 129
e 12 118
e 158 172
e 58 234
e 177 185
e 77 247
e 56 124
e 42 226
e 116 175
e 61 239
e 135 188
e 80 252
e 28 62
e 195 239
e 47 75
e 176 226
e 107 126
e 19 242
e 93 191
e 74 178
e 239 245
e 46 116
e 10 193
e 51 194
e 156 247
e 197 248
e 49 121
e 68 134
e 109 172
e 95 237
e 169 186
e 21 59
e 150 173
e 114 250
e 54 236
e 26 137
e 153 178
e 12 239
e 172 191
e 72 253
e 232 242
e 53 240
e 39 76
e 213 229
e 70 180
e 89 193
e 56 245
e 190 245
e 42 118
e 83 119
e 28 183
e 88 234
e 162 183
e 107 247
e 47 196
e 19 134
e 60 135
e 46 237
e 146 175
e 65 250
e 151 253
e 13 60
e 225 239
e 63 177
e 104 178
e 49 242
e 51 86
e 68 255
e 183 242
e 123 191
e 35 78
e 21 180
e 95 129
e 81 194
e 141 245
e 227 248
e 34 119
e 53 132
e 39 197
e 72 145
e 37 124
e 56 137
e 42 239
e 116 188
e 83 240
e 102 253
e 28 75
e 14 140
e 74 191
e 19 255
e 93 204
e 27 79
e 46 129
e 137 247
e 178 248
e 51 207
e 49 134
e 90 135
e 35 199
e 150 186
e 95 250
e 169 199
e 136 251
e 62 73
e 48 138
e 34 240
e 153 191
e 53 253
e 134 178
e 213 242
e 39 89
e 125 129
e 92 181
e 37 245
e 171 245
e 111 194
e 28 196
e 102 145
e 129 248
e 146 188
e 46 250
e 113 240
e 13 73
e 145 192
e 49 255
e 2 143
e 117 130
e 62 194
e 81 207
e 208 248
e 122 208
e 120 135
e 180 186
e 125 250
e 166 251
e 39 210
e 37 137
e 78 138
e 97 151
e 83 253
e 157 202
e 50 76
e 69 89
e 14 153
e 55 154
e 201 245
e 27 92
e 25 248
e 99 197
e 13 194
e 118 210
e 159 248
e 11 84
e 131 149
e 35 212
e 117 251
e 76 213
e 134 191
e 34 253
e 48 151
e 194 205
e 92 194
e 152 208
e 50 197
e 124 146
e 69 210
e 196 251
e 108 138
e 127 151
e 27 213
e 187 202
e 113 253
e 247 253
e 44 153
e 85 154
e 145 205
e 164 218
e 57 92
e 2 156
e 43 157
e 117 143
e 103 208
e 122 221
e 15 95
e 18 100
e 59 138
e 78 151
e 97 164
e 50 89
e 36 154
e 182 208
e 118 223
e 52 98
e 38 200
e 112 149
e 57 213
e 76 226
e 43 49
e 115 154
e 175 205
e 87 92
e 73 157
e 18 221
e 133 208
e 152 221
e 45 95
e 124 159
e 91 211
e 108 151
e 8 213
e 22 111
e 94 216
e 127 164
e 85 167
e 126 168
e 186 219
e 38 92
e 79 93
e 43 170
e 103 221
e 82 98
e 142 149
e 87 213
e 147 227
e 59 151
e 100 152
e 45 216
e 12 39
e 31 52
e 91 103
e 36 167
e 163 208
e 77 168
e 182 221
e 94 108
e 80 173
e 121 211
e 52 111
e 38 213
e 112 162
e 57 226
e 98 227
e 115 167
e 15 229
e 156 168
e 101 232
e 54 157
e 73 170
e 18 234
e 133 221
e 174 222
e 193 235
e 86 109
e 31 173
e 177 227
e 110 237
e 130 152
e 75 216
e 89 114
e 94 229
e 168 178
e 107 168
e 52 232
e 126 181
e 167 219
e 19 55
e 186 232
e 98 119
e 10 235
e 63 98
e 82 111
e 68 176
e 142 162
e 87 226
e 21 101
e 45 229
e 119 178
e 86 230
e 12 52
e 58 168
e 163 221
e 22 245
e 204 222
e 89 235
e 75 108
e 77 181
e 223 235
e 121 224
e 80 186
e 181 238
e 74 112
e 19 176
e 79 227
e 98 240
e 46 50
e 63 219
e 82 232
e 216 232
e 54 170
e 95 171
e 155 222
e 174 235
e 26 71
e 12 173
e 86 122
e 72 187
e 158 227
e 70 114
e 89 127
e 75 229
e 149 178
e 116 230
e 135 243
e 88 168
e 47 130
e 107 181
e 52 245
e 93 246
e 19 68
e 60 69
e 46 171
e 10 248
e 151 187
e 211 238
e 63 111
e 49 176
e 109 227
e 128 240
e 169 241
e 21 114
e 141 179
e 172 246
e 125 171
e 70 235
e 58 181
e 89 248
e 37 58
e 204 235
e 56 71
e 42 173
e 116 122
e 28 238
e 102 187
e 47 251
e 61 186
e 162 238
e 14 74
e 181 251
e 74 125
e 146 230
e 60 190
e 79 240
e 13 115
e 137 181
e 51 141
e 123 246
e 82 245
e 49 68
e 35 133
e 40 248
e 114 197
e 155 235
e 26 84
e 34 174
e 53 187
e 158 240
e 199 241
e 70 127
e 37 179
e 116 243
e 28 130
e 14 195
e 129 182
e 74 246
e 148 195
e 88 181
e 60 82
e 151 200
e 44 74
e 104 125
e 90 190
e 123 138
e 150 241
e 81 141
e 122 142
e 153 246
e 20 131
e 53 79
e 70 248
e 144 197
e 226 236
e 37 71
e 56 84
e 83 187
e 102 200
e 143 201
e 14 87
e 55 88
e 146 243
e 60 203
e 44 195
e 104 246
e 178 195
e 197 208
e 16 133
e 35 146
e 21 248
e 117 185
e 76 147
e 241 251
e 48 85
e 34 187
e 53 200
e 180 241
e 111 141
e 56 205
e 138 244
e 97 206
e 50 131
e 14 208
e 113 187
e 27 147
e 173 201
e 233 252
e 44 87
e 85 88
e 90 203
e 217 244
e 62 141
e 103 142
e 134 246
e 122 155
e 18 34
e 59 72
e 78 85
e 50 252
e 124 201
e 83 200
e 143 214
e 36 88
e 55 101
e 127 206
e 27 39
e 44 208
e 118 157
e 159 195
e 71 82
e 57 147
e 136 211
e 48 98
e 15 150
e 120 203
e 139 216
e 221 255
e 18 155
e 133 142
e 59 193
e 97 219
e 91 145
e 110 158
e 55 222
e 22 45
e 8 147
e 113 200
e 154 201
e 173 214
e 11 152
e 85 101
e 71 203
e 112 204
e 131 217
e 84 142
e 103 155
e 48 219
e 15 42
e 87 147
e 166 211
e 207 212
e 18 47
e 4 149
e 45 150
e 78 98
e 64 163
e 59 85
e 124 214
e 210 217
e 77 102
e 22 166
e 108 206
e 127 219
e 168 220
e 121 145
e 80 107
e 140 158
e 85 222
e 38 147
e 184 201
e 98 161
e 43 225
e 222 227
e 15 163
e 101 166
e 161 217
e 54 91
e 18 168
e 59 206
e 78 219
e 119 220
e 31 107
e 91 158
e 36 222
e 77 223
e 110 171
e 75 150
e 22 58
e 94 163
e 154 214
e 214 228
e 52 166
e 112 217
e 131 230
e 10 169
e 43 117
e 115 222
e 84 155
e 54 212
e 73 225
e 188 212
e 147 174
e 207 225
e 45 163
e 31 228
e 191 217
e 210 230
e 58 102
e 77 115
e 108 219
e 149 220
e 61 107
e 107 223
e 140 171
e 126 236
e 19 110
e 52 58
e 79 161
e 98 174
e 43 238
e 51 62
e 82 166
e 101 179
e 142 217
e 161 230
e 54 104
e 73 117
e 119 233
e 12 107
e 31 120
e 17 222
e 72 121
e 58 223
e 77 236
e 158 161
e 75 163
e 116 164
e 61 228
e 135 177
e 80 241
e 28 51
e 195 228
e 214 241
e 88 102
e 52 179
e 93 180
e 179 220
e 10 182
e 137 223
e 156 236
e 49 110
e 68 123
e 109 161
e 73 238
e 114 239
e 21 48
e 188 225
e 26 126
e 12 228
e 31 241
e 191 230
e 58 115
e 70 169
e 89 182
e 130 220
e 149 233
e 190 234
e 61 120
e 102 121
e 47 185
e 162 172
e 107 236
e 181 185
e 88 223
e 19 123
e 146 164
e 5 188
e 79 174
e 46 226
e 63 166
e 51 75
e 82 179
e 123 180
e 68 244
e 202 244
e 21 169
e 155 169
e 26 247
e 141 234
e 100 233
e 114 131
e 12 120
e 53 121
e 72 134
e 158 174
e 58 236
e 56 126
e 42 228
e 116 177
e 61 241
e 135 190
e 176 228
e 14 129
e 88 115
e 47 77
e 93 193
e 179 233
e 220 234
e 46 118
e 51 196
e 137 236
e 197 250
e 49 123
e 35 188
e 68 136
e 150 175
e 169 188
e 109 174
e 95 239
e 114 252
e 26 139
e 153 180
e 12 241
e 172 193
e 72 255
e 232 244
e 53 242
e 70 182
e 56 247
e 130 233
e 89 195
e 190 247
e 42 120
e 83 121
e 88 236
e 162 185
e 129 237
e 148 250
e 14 21
e 60 137
e 46 239
e 146 177
e 151 255
e 13 62
e 44 129
e 104 180
e 49 244
e 123 193
e 35 80
e 21 182
e 62 183
e 95 131
e 81 196
e 141 247
e 34 121
e 53 134
e 39 199
e 125 239
e 185 253
e 37 126
e 56 139
e 42 241
e 97 140
e 157 191
e 138 178
e 102 255
e 83 242
e 69 78
e 74 193
e 201 234
e 220 247
e 27 81
e 13 183
e 118 199
e 159 237
e 178 250
e 90 137
e 35 201
e 150 188
e 95 252
e 136 253
e 62 75
e 48 140
e 34 242
e 153 193
e 53 255
e 134 180
e 39 91
e 37 247
e 111 196
e 92 183
e 171 247
e 212 248
e 83 134
e 124 135
e 69 199
e 129 250
e 127 140
e 113 242
e 60 150
e 13 75
e 44 142
e 104 193
e 145 194
e 71 245
e 164 207
e 57 81
e 2 145
e 76 94
e 62 196
e 208 250
e 122 210
e 15 84
e 34 134
e 120 137
e 180 188
e 125 252
e 166 253
e 39 212
e 37 139
e 78 140
e 97 153
e 83 255
e 157 204
e 138 191
e 50 78
e 36 143
e 55 156
e 201 247
e 242 248
e 27 94
e 13 196
e 113 134
e 159 250
e 118 212
e 11 86
e 71 137
e 57 202
e 131 151
e 117 253
e 90 150
e 48 153
e 134 193
e 34 255
e 194 207
e 175 194
e 92 196
e 111 209
e 152 210
e 45 84
e 50 199
e 69 212
e 110 213
e 196 253
e 143 161
e 22 100
e 8 202
e 127 153
e 113 255
e 187 204
e 11 207
e 85 156
e 145 207
e 38 81
e 164 220
e 57 94
e 2 158
e 43 159
e 84 197
e 103 210
e 117 145
e 15 97
e 87 202
e 120 150
e 18 102
e 59 140
e 119 154
e 163 197
e 55 169
e 22 221
e 182 210
e 75 84
e 94 97
e 140 213
e 52 100
e 38 202
e 131 164
e 76 228
e 84 89
e 115 156
e 15 218
e 73 159
e 18 223
e 133 210
e 152 223
e 45 97
e 50 212
e 91 213
e 110 226
e 22 113
e 149 154
e 108 153
e 52 221
e 126 170
e 167 208
e 85 169
e 186 221
e 38 94
e 98 108
e 43 172
e 84 210
e 170 213
e 82 100
e 161 164
e 147 229
e 59 153
e 45 218
e 205 207
e 119 167
e 58 157
e 163 210
e 22 234
e 75 97
e 94 110
e 61 162
e 80 175
e 121 213
e 140 226
e 52 113
e 112 164
e 79 216
e 98 229
e 10 116
e 82 221
e 115 169
e 156 170
e 101 234
e 54 159
e 73 172
e 114 173
e 26 60
e 12 162
e 86 111
e 31 175
e 193 237
e 91 226
e 177 229
e 89 116
e 75 218
e 149 167
e 168 180
e 135 232
e 47 119
e 88 157
e 107 170
e 52 234
e 126 183
e 167 221
e 19 57
e 79 108
e 24 172
e 170 226
e 63 100
e 82 113
e 142 164
e 68 178
e 109 216
e 21 103
e 147 242
e 26 181
e 100 167
e 141 168
e 86 232
e 12 54
e 89 237
e 77 183
e 223 237
e 42 162
e 61 175
e 47 240
e 121 226
e 80 188
e 181 240
e 74 114
e 19 178
e 93 127
e 79 229
e 46 52
e 10 129
e 137 170
e 51 130
e 156 183
e 101 247
e 49 57
e 63 221
e 68 70
e 54 172
e 95 173
e 114 186
e 26 73
e 12 175
e 53 176
e 86 124
e 158 229
e 70 116
e 56 181
e 130 167
e 89 129
e 116 232
e 42 54
e 135 245
e 28 119
e 88 170
e 74 235
e 107 183
e 19 70
e 60 71
e 46 173
e 10 250
e 51 251
e 211 240
e 63 113
e 104 114
e 49 178
e 68 191
e 109 229
e 169 243
e 21 116
e 62 117
e 81 130
e 26 194
e 141 181
e 86 245
e 34 55
e 172 248
e 53 68
e 39 133
e 70 237
e 125 173
e 89 250
e 56 73
e 42 175
e 83 176
e 28 240
e 47 253
e 162 240
e 181 253
e 74 127
e 19 191
e 146 232
e 13 117
e 63 234
e 104 235
e 137 183
e 123 248
e 51 143
e 49 70
e 35 135
e 21 237
e 95 186
e 136 187
e 81 251
e 48 74
e 34 176
e 72 202
e 199 243
e 111 130
e 56 194
e 116 245
e 157 246
e 190 194
e 14 197
e 74 248
e 113 176
e 13 238
e 60 84
e 151 202
e 49 191
e 150 243
e 62 130
e 48 195
e 81 143
e 153 248
e 134 235
e 34 68
e 125 186
e 166 187
e 70 250
e 185 200
e 37 73
e 245 251
e 226 238
e 39 146
e 28 253
e 102 202
e 229 243
e 143 203
e 14 89
e 55 90
e 146 245
e 187 246
e 60 205
e 13 130
e 44 197
e 118 146
e 178 197
e 2 200
e 117 187
e 62 251
e 76 149
e 48 87
e 139 205
e 180 243
e 92 130
e 78 195
e 97 208
e 138 246
e 50 133
e 14 210
e 129 197
e 55 211
e 22 34
e 27 149
e 13 251
e 173 203
e 11 141
e 85 90
e 44 89
e 90 205
e 217 246
e 131 206
e 84 131
e 43 93
e 134 248
e 122 157
e 92 251
e 166 200
e 18 36
e 185 213
e 59 74
e 124 203
e 143 216
e 36 90
e 108 195
e 55 103
e 127 208
e 85 211
e 159 197
e 71 84
e 38 136
e 57 149
e 76 162
e 15 152
e 120 205
e 161 206
e 18 157
e 59 195
e 78 208
e 97 221
e 91 147
e 36 211
e 196 200
e 22 47
e 8 149
e 27 162
e 154 203
e 173 216
e 214 217
e 11 154
e 85 103
e 71 205
e 112 206
e 131 219
e 103 157
e 15 44
e 87 149
e 73 214
e 147 163
e 188 201
e 18 49
e 4 151
e 45 152
e 59 87
e 191 206
e 124 216
e 77 104
e 108 208
e 22 168
e 127 221
e 168 222
e 121 147
e 80 109
e 200 211
e 126 225
e 38 149
e 57 162
e 98 163
e 43 227
e 203 216
e 101 168
e 161 219
e 54 93
e 59 208
e 119 222
e 31 109
e 77 225
e 75 152
e 80 230
e 195 217
e 214 230
e 47 53
e 52 168
e 112 219
e 10 171
e 156 225
e 109 150
e 68 112
e 73 227
e 21 37
e 147 176
e 207 227
e 86 166
e 191 219
e 210 232
e 58 104
e 89 171
e 22 181
e 149 222
e 61 109
e 80 122
e 107 225
e 79 163
e 98 176
e 63 155
e 82 168
e 142 219
e 183 220
e 101 181
e 202 233
e 95 107
e 100 222
e 119 235
e 12 109
e 31 122
e 158 163
e 72 123
e 58 225
e 77 238
e 42 217
e 116 166
e 61 230
e 135 179
e 80 243
e 195 230
e 88 104
e 19 233
e 52 181
e 93 182
e 179 222
e 46 107
e 137 225
e 51 185
e 156 238
e 68 125
e 109 163
e 95 228
e 169 177
e 21 50
e 114 241
e 54 227
e 12 230
e 86 179
e 172 182
e 31 243
e 72 244
e 70 171
e 58 117
e 89 184
e 130 222
e 149 235
e 190 236
e 42 109
e 28 174
e 61 122
e 88 225
e 162 174
e 107 238
e 181 187
e 19 125
e 146 166
e 5 190
e 46 228
e 225 230
e 13 51
e 63 168
e 49 233
e 123 182
e 68 246
e 183 233
e 35 69
e 21 171
e 95 120
e 202 246
e 81 185
e 114 133
e 141 236
e 155 171
e 34 110
e 53 123
e 125 228
e 58 238
e 158 176
e 37 115
e 42 230
e 116 179
e 61 243
e 176 230
e 102 244
e 14 131
e 88 117
e 74 182
e 19 246
e 93 195
e 220 236
e 179 235
e 46 120
e 137 238
e 178 239
e 197 252
e 49 125
e 90 126
e 35 190
e 150 177
e 95 241
e 134 169
e 26 141
e 153 182
e 53 244
e 172 195
e 213 233
e 39 80
e 111 185
e 171 236
e 28 187
e 102 136
e 14 252
e 129 239
e 88 238
e 60 139
e 46 241
e 44 131
e 104 182
e 49 246
e 35 82
e 117 121
e 76 83
e 62 185
e 208 239
e 227 252
e 34 123
e 39 201
e 125 241
e 185 255
e 56 141
e 97 142
e 138 180
e 157 193
e 83 244
e 69 80
e 129 131
e 41 247
e 74 195
e 55 145
e 201 236
e 27 83
e 13 185
e 44 252
e 118 201
e 159 239
e 178 252
e 71 126
e 35 203
e 117 242
e 136 255
e 62 77
e 134 182
e 34 244
e 48 142
e 153 195
e 120 247
e 92 185
e 212 250
e 50 188
e 124 137
e 69 201
e 83 136
e 129 252
e 127 142
e 113 244
e 187 193
e 44 144
e 85 145
e 71 247
e 145 196
e 2 147
e 117 134
e 136 147
e 208 252
e 122 212
e 15 86
e 120 139
e 180 190
e 39 214
e 139 152
e 166 255
e 18 91
e 59 129
e 97 155
e 138 193
e 50 80
e 36 145
e 55 158
e 242 250
e 200 253
e 11 88
e 71 139
e 112 140
e 57 204
e 131 153
e 117 255
e 76 217
e 115 145
e 48 155
e 175 196
e 133 199
e 152 212
e 45 86
e 50 201
e 124 150
e 69 214
e 196 255
e 22 102
e 8 204
e 127 155
e 27 217
e 108 142
e 85 158
e 186 210
e 38 83
e 43 161
e 84 199
e 103 212
e 230 253
e 122 225
e 87 204
e 18 104
e 59 142
e 45 207
e 119 156
e 78 155
e 31 43
e 36 158
e 163 199
e 22 223
e 182 212
e 77 159
e 80 164
e 52 102
e 38 204
e 112 153
e 131 166
e 84 91
e 115 158
e 15 220
e 101 223
e 73 161
e 18 225
e 133 212
e 152 225
e 193 226
e 86 100
e 31 164
e 110 228
e 22 115
e 108 155
e 94 220
e 11 222
e 107 159
e 126 172
e 167 210
e 19 46
e 186 223
e 79 97
e 24 161
e 98 110
e 10 226
e 84 212
e 43 174
e 63 89
e 82 102
e 101 115
e 87 217
e 100 156
e 45 220
e 119 169
e 12 43
e 31 56
e 163 212
e 22 236
e 77 172
e 182 225
e 223 226
e 61 164
e 80 177
e 140 228
e 181 229
e 19 167
e 38 217
e 52 115
e 79 218
e 137 159
e 82 223
e 156 172
e 101 236
e 54 161
e 114 175
e 155 213
e 174 226
e 26 62
e 193 239
e 12 164
e 31 177
e 72 178
e 91 228
e 158 218
e 86 113
e 89 118
e 75 220
e 149 169
e 94 233
e 135 234
e 88 159
e 47 121
e 107 172
e 52 236
e 126 185
e 93 237
e 167 223
e 46 162
e 10 239
e 170 228
e 211 229
e 63 102
e 49 167
e 68 180
e 109 218
e 147 244
e 26 183
e 141 170
e 86 234
e 100 169
e 12 56
e 53 57
e 70 226
e 58 172
e 89 239
e 204 226
e 223 239
e 42 164
e 61 177
e 102 178
e 121 228
e 162 229
e 47 242
e 181 242
e 74 116
e 19 180
e 93 129
e 137 172
e 82 236
e 156 185
e 123 237
e 68 72
e 35 124
e 95 175
e 21 226
e 114 188
e 155 226
e 26 75
e 53 178
e 72 191
e 177 244
e 218 245
e 70 118
e 130 169
e 56 183
e 116 234
e 42 56
e 135 247
e 28 121
e 88 172
e 129 173
e 74 237
e 47 134
e 93 250
e 60 73
e 46 175
e 51 253
e 104 116
e 49 180
e 123 129
e 68 193
e 35 245
e 150 232
e 169 245
e 62 119
e 26 196
e 153 237
e 86 247
e 34 57
e 172 250
e 53 70
e 141 183
e 125 175
e 70 239
e 144 188
e 37 62
e 56 75
e 42 177
e 83 178
e 28 242
e 102 191
e 47 255
e 162 242
e 74 129
e 146 234
e 206 248
e 13 119
e 44 186
e 63 236
e 104 237
e 178 186
e 123 250
e 197 199
e 118 135
e 159 173
e 35 137
e 21 239
e 62 240
e 95 188
e 81 253
e 53 191
e 139 194
e 180 232
e 199 245
e 92 119
e 37 183
e 56 196
e 97 197
e 116 247
e 171 183
e 157 248
e 28 134
e 69 135
e 14 199
e 129 186
e 74 250
e 160 253
e 148 199
e 113 178
e 13 240
e 27 138
e 151 204
e 233 243
e 44 78
e 104 129
e 71 181
e 90 194
e 81 145
e 134 237
e 48 197
e 122 146
e 34 70
e 20 135
e 92 240
e 125 188
e 111 253
e 226 240
e 37 75
e 245 253
e 185 202
e 83 191
e 28 255
e 36 79
e 55 92
e 127 197
e 60 207
e 146 247
e 99 135
e 44 199
e 159 186
e 104 250
e 178 199
e 71 73
e 16 137
e 57 138
e 2 202
e 76 151
e 62 253
e 34 191
e 120 194
e 139 207
e 37 196
e 78 197
e 97 210
e 138 248
e 50 135
e 110 149
e 55 213
e 22 36
e 8 138
e 27 151
e 13 253
e 113 191
e 71 194
e 90 207
e 131 208
e 43 95
e 103 146
e 48 210
e 122 159
e 175 251
e 134 250
e 87 138
e 106 151
e 92 253
e 166 202
e 18 38
e 124 205
e 143 218
e 36 92
e 22 157
e 108 197
e 127 210
e 38 138
e 57 151
e 43 216
e 117 202
e 76 164
e 15 154
e 120 207
e 161 208
e 73 95
e 18 159
e 78 210
e 119 211
e 205 251
e 31 98
e 91 149
e 36 213
e 196 202
e 55 226
e 110 162
e 22 49
e 8 151
e 94 154
e 154 205
e 173 218
e 214 219
e 11 156
e 52 157
e 131 221
e 43 108
e 115 213
e 87 151
e 73 216
e 188 203
e 207 216
e 59 89
e 45 154
e 191 208
e 210 221
e 58 93
e 108 210
e 149 211
e 22 170
e 61 98
e 80 111
e 121 149
e 140 162
e 85 226
e 126 227
e 38 151
e 43 229
e 82 157
e 15 167
e 101 170
e 142 208
e 161 221
e 73 108
e 18 172
e 59 210
e 100 211
e 12 98
e 31 111
e 58 214
e 77 227
e 176 206
e 135 168
e 214 232
e 52 170
e 112 221
e 10 173
e 115 226
e 156 227
e 68 114
e 54 216
e 109 152
e 73 229
e 21 39
e 188 216
e 26 117
e 45 167
e 31 232
e 191 221
e 130 211
e 77 119
e 89 173
e 42 98
e 168 237
e 61 111
e 88 214
e 80 124
e 107 227
e 121 162
e 126 240
e 47 176
e 19 114
e 98 178
e 63 157
e 82 170
e 101 183
e 68 235
e 142 221
e 54 108
e 95 109
e 141 225
e 53 112
e 72 125
e 58 227
e 42 219
e 75 167
e 116 168
e 176 219
e 135 181
e 28 55
e 195 232
e 47 68
e 61 232
e 107 119
e 19 235
e 74 171
e 10 186
e 51 187
e 156 240
e 197 241
e 68 127
e 54 229
e 95 230
e 169 179
e 114 243
e 26 130
e 12 232
e 86 181
e 213 222
e 31 245
e 72 246
e 39 69
e 70 173
e 89 186
e 171 225
e 190 238
e 42 111
e 83 112
e 28 176
e 102 125
e 88 227
e 162 176
e 107 240
e 19 127
e 146 168
e 46 230
e 13 53
e 151 246
e 63 170
e 104 171
e 49 235
e 51 79
e 68 248
e 183 235
e 35 71
e 95 122
e 81 187
e 26 251
e 141 238
e 227 241
e 34 112
e 53 125
e 72 138
e 125 230
e 39 190
e 37 117
e 56 130
e 42 232
e 116 181
e 157 182
e 28 68
e 14 133
e 19 248
e 93 197
e 220 238
e 13 174
e 46 122
e 137 240
e 51 200
e 150 179
e 95 243
e 48 131
e 34 233
e 134 171
e 53 246
e 213 235
e 39 82
e 70 186
e 111 187
e 56 251
e 171 238
e 37 238
e 190 251
e 83 125
e 69 190
e 102 138
e 129 241
e 60 141
e 113 233
e 46 243
e 146 181
e 44 133
e 49 248
e 123 197
e 2 136
e 117 123
e 62 187
e 81 200
e 122 201
e 34 125
e 125 243
e 166 244
e 39 203
e 37 130
e 78 131
e 23 195
e 138 182
e 157 195
e 50 69
e 14 146
e 129 133
e 55 147
e 201 238
e 220 251
e 113 125
e 13 187
e 27 85
e 159 241
e 11 77
e 219 255
e 35 205
e 131 142
e 76 206
e 117 244
e 34 246
e 153 197
e 92 187
e 37 251
e 111 200
e 152 201
e 50 190
e 124 139
e 69 203
e 196 244
e 108 131
e 8 193
e 27 206
e 187 195
e 113 246
e 44 146
e 85 147
e 38 72
e 164 211
e 57 85
e 2 149
e 76 98
e 62 200
e 117 136
e 103 201
e 208 254
e 122 214
e 15 88
e 120 141
e 18 93
e 138 195
e 97 157
e 36 147
e 182 201
e 242 252
e 27 98
e 118 216
e 200 255
e 11 90
e 38 193
e 71 141
e 57 206
e 76 219
e 73 150
e 18 214
e 133 201
e 59 252
e 152 214
e 45 88
e 91 204
e 124 152
e 110 217
e 22 104
e 127 157
e 11 211
e 126 161
e 186 212
e 38 85
e 84 201
e 43 163
e 103 214
e 230 255
e 101 104
e 87 206
e 147 220
e 100 145
e 119 158
e 31 45
e 77 161
e 22 225
e 75 88
e 94 101
e 80 166
e 121 204
e 140 217
e 52 104
e 38 206
e 112 155
e 57 219
e 98 220
e 156 161
e 73 163
e 18 227
e 133 214
e 193 228
e 12 153
e 45 101
e 31 166
e 86 102
e 91 217
e 177 220
e 110 230
e 130 145
e 89 107
e 149 158
e 107 161
e 52 225
e 126 174
e 167 212
e 19 48
e 186 225
e 98 112
e 10 228
e 84 214
e 170 217
e 189 230
e 63 91
e 82 104
e 142 155
e 87 219
e 147 233
e 100 158
e 45 222
e 119 171
e 86 223
e 31 58
e 58 161
e 77 174
e 22 238
e 163 214
e 223 228
e 42 153
e 75 101
e 61 166
e 80 179
e 19 169
e 93 118
e 79 220
e 98 233
e 63 212
e 51 121
e 82 225
e 156 174
e 101 238
e 216 225
e 54 163
e 95 164
e 114 177
e 174 228
e 193 241
e 12 166
e 86 115
e 31 179
e 72 180
e 177 233
e 70 107
e 130 158
e 75 222
e 116 223
e 149 171
e 135 236
e 28 110
e 88 161
e 47 123
e 107 174
e 52 238
e 167 225
e 93 239
e 19 61
e 46 164
e 10 241
e 151 180
e 51 242
e 63 104
e 170 230
e 49 169
e 68 182
e 109 220
e 21 107
e 26 185
e 141 172
e 86 236
e 34 46
e 53 59
e 125 164
e 70 228
e 89 241
e 37 51
e 223 241
e 42 166
e 61 179
e 102 180
e 47 244
e 74 118
e 93 131
e 146 223
e 79 233
e 46 56
e 63 225
e 51 134
e 82 238
e 137 174
e 49 61
e 35 126
e 21 228
e 95 177
e 114 190
e 155 228
e 81 242
e 34 167
e 26 77
e 53 180
e 72 193
e 158 233
e 199 234
e 218 247
e 37 172
e 111 121
e 56 185
e 70 120
e 116 236
e 28 123
e 14 188
e 129 175
e 47 136
e 88 174
e 93 252
e 60 75
e 46 177
e 151 193
e 51 255
e 211 244
e 49 182
e 123 131
e 35 247
e 150 234
e 90 183
e 2 70
e 169 247
e 62 121
e 141 185
e 153 239
e 172 252
e 53 72
e 125 177
e 70 241
e 39 137
e 111 242
e 28 244
e 102 193
e 229 234
e 143 194
e 162 244
e 14 80
e 55 81
e 146 236
e 60 196
e 206 250
e 13 121
e 44 188
e 159 175
e 104 239
e 178 188
e 118 137
e 197 201
e 164 253
e 123 252
e 35 139
e 21 241
e 117 178
e 136 191
e 81 255
e 62 242
e 48 78
e 34 180
e 120 183
e 53 193
e 180 234
e 139 196
e 199 247
e 92 121
e 37 185
e 111 134
e 97 199
e 171 185
e 138 237
e 157 250
e 50 124
e 69 137
e 14 201
e 129 188
e 74 252
e 27 140
e 13 242
e 113 180
e 173 194
e 233 245
e 44 80
e 71 183
e 90 196
e 150 247
e 236 250
e 103 135
e 48 199
e 122 148
e 153 252
e 194 253
e 20 137
e 39 150
e 92 242
e 185 204
e 4 129
e 245 255
e 83 193
e 50 245
e 124 194
e 229 247
e 36 81
e 187 250
e 13 134
e 44 201
e 159 188
e 145 253
e 71 75
e 57 140
e 2 204
e 117 191
e 62 255
e 136 204
e 76 153
e 48 91
e 120 196
e 221 248
e 59 186
e 133 135
e 78 199
e 92 134
e 138 250
e 97 212
e 50 137
e 69 150
e 110 151
e 36 202
e 22 38
e 113 193
e 13 255
e 27 153
e 173 207
e 154 194
e 11 145
e 85 94
e 71 196
e 112 197
e 131 210
e 217 250
e 43 97
e 84 135
e 115 202
e 48 212
e 175 253
e 122 161
e 15 35
e 134 252
e 87 140
e 92 255
e 59 78
e 78 91
e 45 143
e 124 207
e 36 94
e 77 95
e 22 159
e 108 199
e 127 212
e 168 213
e 80 100
e 140 151
e 200 202
e 38 140
e 2 217
e 43 218
e 98 154
e 15 156
e 142 197
e 101 159
e 161 210
e 54 84
e 18 161
e 59 199
e 78 212
e 152 161
e 205 253
e 119 213
e 31 100
e 91 151
e 196 204
e 55 228
e 110 164
e 22 51
e 8 153
e 75 143
e 94 156
e 154 207
e 195 208
e 214 221
e 11 158
e 52 159
e 112 210
e 131 223
e 10 162
e 43 110
e 87 153
e 73 218
e 147 167
e 188 205
e 207 218
e 45 156
e 31 221
e 191 210
e 210 223
e 58 95
e 108 212
e 22 172
e 168 226
e 61 100
e 121 151
e 126 229
e 19 103
e 38 153
e 79 154
e 98 167
e 82 159
e 142 210
e 101 172
e 161 223
e 54 97
e 73 110
e 100 213
e 119 226
e 12 100
e 31 113
e 72 114
e 91 164
e 58 216
e 77 229
e 94 169
e 135 170
e 80 234
e 47 57
e 214 234
e 52 172
e 93 173
e 179 213
e 46 98
e 137 216
e 156 229
e 49 103
e 109 154
e 68 116
e 54 218
e 147 180
e 114 232
e 188 218
e 26 119
e 86 170
e 31 234
e 70 162
e 58 108
e 130 213
e 89 175
e 149 226
e 190 227
e 42 100
e 61 113
e 47 178
e 107 229
e 126 242
e 19 116
e 79 167
e 51 68
e 123 173
e 68 237
e 35 60
e 21 162
e 95 111
e 202 237
e 114 124
e 26 240
e 100 226
e 141 227
e 155 162
e 12 113
e 53 114
e 72 127
e 158 167
e 58 229
e 77 242
e 56 119
e 42 221
e 116 170
e 135 183
e 80 247
e 28 57
e 176 221
e 14 122
e 33 172
e 88 108
e 179 226
e 220 227
e 239 240
e 137 229
e 156 242
e 197 243
e 49 116
e 68 129
e 35 181
e 109 167
e 169 181
e 21 54
e 114 245
e 150 168
e 95 232
e 153 173
e 12 234
e 172 186
e 72 248
e 86 183
e 53 235
e 70 175
e 89 188
e 171 227
e 56 240
e 190 240
e 42 113
e 28 178
e 129 230
e 146 170
e 60 130
e 13 55
e 151 248
e 44 122
e 63 172
e 51 81
e 104 173
e 49 237
e 68 250
e 123 186
e 183 237
e 21 175
e 95 124
e 62 176
e 141 240
e 34 114
e 53 127
e 125 232
e 37 119
e 97 133
e 116 183
e 102 248
e 69 71
e 14 135
e 74 186
e 201 227
e 19 250
e 60 251
e 220 240
e 27 74
e 239 253
e 159 230
e 71 117
e 90 130
e 35 194
e 150 181
e 95 245
e 169 194
e 136 246
e 62 68
e 134 173
e 34 235
e 48 133
e 153 186
e 172 199
e 213 237
e 139 251
e 53 248
e 92 176
e 37 240
e 111 189
e 56 253
e 39 84
e 212 241
e 171 240
e 83 127
e 28 191
e 129 243
e 127 133
e 27 195
e 60 143
e 146 183
e 113 235
e 13 68
e 44 135
e 104 186
e 145 187
e 90 251
e 49 250
e 164 200
e 57 74
e 2 138
e 76 87
e 7 253
e 136 138
e 208 243
e 81 202
e 122 203
e 34 127
e 120 130
e 125 245
e 39 205
e 166 246
e 37 132
e 78 133
e 23 197
e 97 146
e 83 248
e 157 197
e 50 71
e 36 136
e 55 149
e 201 240
e 113 127
e 27 87
e 118 205
e 159 243
e 11 79
e 71 130
e 57 195
e 90 143
e 117 246
e 76 208
e 48 146
e 34 248
e 120 251
e 194 200
e 134 186
e 37 253
e 152 203
e 124 141
e 69 205
e 143 154
e 196 246
e 22 93
e 8 195
e 108 133
e 27 208
e 187 197
e 113 248
e 127 146
e 11 200
e 71 251
e 145 200
e 38 74
e 164 213
e 57 87
e 2 151
e 84 190
e 43 152
e 117 138
e 103 203
e 122 216
e 15 90
e 87 195
e 120 143
e 18 95
e 59 133
e 78 146
e 23 210
e 119 147
e 138 197
e 31 34
e 36 149
e 55 162
e 182 203
e 11 92
e 38 195
e 57 208
e 76 221
e 115 149
e 15 211
e 175 200
e 18 216
e 133 203
e 45 90
e 50 205
e 91 206
e 110 219
e 8 208
e 94 211
e 11 213
e 52 214
e 126 163
e 85 162
e 186 214
e 38 87
e 167 201
e 84 203
e 170 206
e 103 216
e 82 93
e 15 103
e 87 208
e 147 222
e 18 108
e 100 147
e 59 146
e 12 34
e 31 47
e 91 98
e 58 150
e 163 203
e 22 227
e 77 163
e 182 216
e 94 103
e 61 155
e 80 168
e 121 206
e 140 219
e 38 208
e 112 157
e 98 222
e 82 214
e 156 163
e 101 227
e 54 152
e 114 166
e 18 229
e 174 217
e 133 216
e 193 230
e 12 155
e 26 53
e 31 168
e 45 103
e 86 104
e 177 222
e 89 109
e 75 211
e 94 224
e 135 225
e 47 112
e 88 150
e 107 163
e 126 176
e 167 214
e 186 227
e 79 101
e 10 230
e 170 219
e 63 93
e 101 119
e 142 157
e 68 171
e 147 235
e 141 161
e 86 225
e 12 47
e 58 163
e 89 230
e 204 217
e 163 216
e 223 230
e 42 155
e 77 176
e 61 168
e 80 181
e 162 220
e 121 219
e 181 233
e 93 120
e 79 222
e 98 235
e 63 214
e 137 163
e 51 123
e 156 176
e 101 240
e 82 227
e 216 227
e 21 217
e 95 166
e 114 179
e 174 230
e 12 168
e 86 117
e 177 235
e 218 236
e 70 109
e 89 122
e 116 225
e 28 112
e 88 163
e 47 125
e 74 228
e 107 176
e 93 241
e 19 63
e 46 166
e 51 244
e 211 233
e 49 171
e 109 222
e 169 236
e 21 109
e 81 123
e 26 187
e 141 174
e 34 48
e 172 241
e 125 166
e 39 126
e 89 243
e 204 230
e 42 168
e 83 169
e 28 233
e 102 182
e 47 246
e 162 233
e 14 69
e 74 120
e 60 185
e 93 133
e 146 225
e 63 227
e 137 176
e 104 228
e 51 136
e 123 241
e 49 63
e 21 230
e 95 179
e 136 180
e 155 230
e 34 169
e 53 182
e 139 185
e 72 195
e 199 236
e 39 247
e 158 235
e 70 122
e 37 174
e 56 187
e 116 238
e 157 239
e 28 125
e 69 126
e 14 190
e 129 177
e 74 241
e 93 254
e 113 169
e 60 77
e 46 179
e 151 195
e 211 246
e 90 185
e 150 236
e 62 123
e 134 228
e 122 137
e 153 241
e 81 136
e 34 61
e 26 200
e 125 179
e 166 180
e 70 243
e 185 193
e 39 139
e 111 244
e 83 182
e 28 246
e 102 195
e 143 196
e 69 247
e 14 82
e 55 83
e 146 238
e 187 239
e 206 252
e 13 123
e 44 190
e 118 139
e 104 241
e 178 190
e 159 177
e 164 255
e 238 241
e 2 193
e 35 141
e 62 244
e 136 193
e 76 142
e 117 180
e 120 185
e 180 236
e 240 250
e 92 123
e 37 187
e 56 200
e 97 201
e 138 239
e 157 252
e 243 255
e 50 126
e 69 139
e 14 203
e 129 190
e 55 204
e 8 129
e 27 142
e 113 182
e 233 247
e 11 134
e 44 82
e 217 239
e 43 86
e 62 136
e 103 137
e 134 241
e 122 150
e 194 255
e 92 244
e 166 193
e 226 244
e 4 131
e 185 206
e 50 247
e 36 83
e 108 188
e 8 250
e 127 201
e 187 252
e 85 204
e 118 152
e 145 255
e 38 129
e 57 142
e 2 206
e 117 193
e 15 145
e 161 199
e 221 250
e 73 86
e 59 188
e 133 137
e 78 201
e 97 214
e 138 252
e 50 139
e 36 204
e 110 153
e 55 217
e 8 142
e 94 145
e 154 196
e 11 147
e 38 250
e 112 199
e 131 212
e 217 252
e 84 137
e 103 150
e 48 214
e 175 255
e 115 204
e 15 37
e 87 142
e 147 156
e 188 194
e 18 42
e 59 80
e 45 145
e 191 199
e 210 212
e 77 97
e 22 161
e 127 214
e 80 102
e 121 140
e 140 153
e 85 217
e 38 142
e 57 155
e 43 220
e 15 158
e 101 161
e 142 199
e 161 212
e 18 163
e 133 150
e 59 201
e 205 255
e 12 89
e 31 102
e 91 153
e 36 217
e 110 166
e 77 218
e 75 145
e 22 53
e 80 223
e 52 161
e 112 212
e 10 164
e 84 150
e 115 217
e 54 207
e 87 155
e 73 220
e 188 207
e 147 169
e 207 220
e 45 158
e 86 159
e 191 212
e 210 225
e 58 97
e 130 202
e 77 110
e 89 164
e 42 89
e 168 228
e 61 102
e 121 153
e 80 115
e 107 218
e 140 166
e 79 156
e 98 169
e 43 233
e 82 161
e 142 212
e 183 213
e 101 174
e 95 100
e 119 228
e 31 115
e 72 116
e 75 158
e 116 159
e 61 223
e 135 172
e 176 210
e 28 46
e 195 223
e 88 97
e 80 236
e 19 226
e 93 175
e 52 174
e 46 100
e 10 177
e 51 178
e 137 218
e 109 156
e 54 220
e 21 43
e 114 234
e 12 223
e 86 172
e 31 236
e 70 164
e 58 110
e 89 177
e 149 228
e 190 229
e 42 102
e 28 167
e 102 116
e 61 115
e 47 180
e 88 218
e 126 244
e 19 118
e 60 119
e 146 159
e 79 169
e 46 221
e 63 161
e 49 226
e 123 175
e 68 239
e 183 226
e 82 174
e 202 239
e 21 164
e 95 113
e 40 177
e 114 126
e 26 242
e 141 229
e 81 178
e 34 103
e 155 164
e 72 129
e 158 169
e 37 108
e 42 223
e 116 172
e 135 185
e 176 223
e 28 59
e 102 237
e 47 72
e 14 124
e 74 175
e 19 239
e 93 188
e 220 229
e 88 110
e 179 228
e 46 113
e 51 191
e 197 245
e 49 118
e 90 119
e 109 169
e 150 170
e 95 234
e 114 247
e 26 134
e 153 175
e 53 237
e 213 226
e 72 250
e 39 73
e 70 177
e 111 178
e 56 242
e 171 229
e 190 242
e 83 116
e 28 180
e 14 245
e 47 193
e 162 180
e 146 172
e 46 234
e 151 250
e 13 57
e 44 124
e 104 175
e 49 239
e 123 188
e 35 75
e 21 177
e 62 178
e 81 191
e 208 232
e 26 255
e 227 245
e 34 116
e 141 242
e 53 129
e 125 234
e 39 194
e 185 248
e 37 121
e 56 134
e 97 135
e 83 237
e 157 186
e 102 250
e 50 60
e 138 173
e 69 73
e 14 137
e 74 188
e 201 229
e 60 253
e 220 242
e 27 76
e 13 178
e 44 245
e 159 232
e 118 194
e 178 245
e 71 119
e 76 197
e 95 247
e 136 248
e 62 70
e 48 135
e 34 237
e 153 188
e 53 250
e 139 253
e 92 178
e 39 86
e 111 191
e 56 255
e 171 242
e 212 243
e 83 129
e 50 181
e 69 194
e 129 245
e 215 248
e 127 135
e 27 197
e 113 237
e 85 138
e 104 188
e 145 189
e 90 253
e 71 240
e 164 202
e 57 76
e 2 140
e 76 89
e 62 191
e 7 255
e 208 245
e 122 205
e 139 145
e 39 207
e 166 248
e 18 84
e 78 135
e 138 186
e 83 250
e 157 199
e 124 251
e 50 73
e 69 86
e 36 138
e 201 242
e 113 129
e 13 191
e 118 207
e 200 246
e 11 81
e 112 133
e 57 197
e 117 248
e 76 210
e 15 200
e 34 250
e 120 253
e 194 202
e 134 188
e 92 191
e 18 205
e 37 255
e 152 205
e 45 79
e 50 194
e 124 143
e 69 207
e 110 208
e 196 248
e 22 95
e 8 197
e 108 135
e 27 210
e 154 251
e 187 199
e 113 250
e 11 202
e 85 151
e 71 253
e 145 202
e 186 203
e 43 154
e 103 205
e 15 92
e 87 197
e 18 97
e 59 135
e 45 200
e 119 149
e 31 36
e 36 151
e 22 216
e 182 205
e 99 207
e 140 208
e 11 94
e 52 95
e 38 197
e 112 146
e 57 210
e 131 159
e 98 211
e 115 151
e 15 213
e 175 202
e 87 89
e 54 141
e 73 154
e 18 218
e 133 205
e 193 219
e 45 92
e 31 157
e 91 208
e 110 221
e 22 108
e 8 210
e 75 200
e 94 213
e 107 152
e 52 216
e 167 203
e 19 39
e 186 216
e 79 90
e 43 167
e 170 208
e 84 205
e 82 95
e 142 146
e 87 210
e 100 149
e 45 213
e 119 162
e 31 49
e 58 152
e 163 205
e 22 229
e 182 218
e 61 157
e 121 208
e 80 170
e 140 221
e 181 222
e 52 108
e 93 109
e 79 211
e 38 210
e 82 216
e 54 154
e 73 167
e 155 206
e 114 168
e 174 219
e 26 55
e 12 157
e 31 170
e 158 211
e 91 221
e 70 98
e 89 111
e 75 213
e 149 162
e 94 226
e 135 227
e 47 114
e 126 178
e 93 230
e 19 52
e 167 216
e 10 232
e 170 221
e 211 222
e 82 108
e 109 211
e 68 173
e 21 98
e 147 237
e 67 214
e 26 176
e 86 227
e 141 163
e 12 49
e 70 219
e 89 232
e 223 232
e 42 157
e 61 170
e 121 221
e 162 222
e 47 235
e 14 58
e 181 235
e 74 109
e 19 173
e 93 122
e 63 216
e 51 125
e 82 229
e 123 230
e 156 178
e 35 117
e 21 219
e 95 168
e 114 181
e 174 232
e 26 68
e 12 170
e 53 171
e 177 237
e 218 238
e 56 176
e 89 124
e 116 227
e 135 240
e 42 49
e 28 114
e 47 127
e 129 166
e 74 230
e 93 243
e 46 168
e 32 233
e 51 246
e 44 58
e 211 235
e 63 108
e 49 173
e 150 225
e 169 238
e 21 111
e 62 112
e 81 125
e 141 176
e 86 240
e 172 243
e 153 230
e 125 168
e 70 232
e 89 245
e 37 55
e 204 232
e 56 68
e 83 171
e 28 235
e 47 248
e 162 235
e 14 71
e 74 122
e 19 186
e 60 187
e 146 227
e 206 241
e 13 112
e 159 166
e 104 230
e 63 229
e 51 138
e 123 243
e 35 130
e 21 232
e 62 233
e 95 181
e 81 246
e 136 182
e 48 69
e 34 171
e 53 184
e 139 187
e 72 197
e 180 225
e 92 112
e 37 176
e 111 125
e 171 176
e 157 241
e 129 179
e 74 243
e 27 131
e 13 233
e 60 79
e 113 171
e 151 197
e 44 71
e 104 122
e 90 187
e 35 251
e 150 238
e 169 251
e 48 190
e 81 138
e 122 139
e 125 181
e 39 141
e 92 233
e 226 233
e 37 68
e 185 195
e 111 246
e 28 248
e 229 238
e 36 72
e 55 85
e 146 240
e 187 241
e 60 200
e 13 125
e 118 141
e 104 243
e 145 244
e 159 179
e 57 131
e 2 195
e 117 182
e 62 246
e 136 195
e 48 82
e 120 187
e 180 238
e 199 251
e 240 252
e 78 190
e 111 138
e 97 203
e 138 241
e 69 141
e 14 205
e 8 131
e 113 184
e 13 246
e 154 185
e 11 136
e 71 187
e 57 252
e 131 201
e 90 200
e 43 88
e 29 190
e 84 126
e 48 203
e 134 243
e 175 244
e 15 26
e 103 139
e 87 131
e 20 141
e 122 152
e 92 246
e 166 195
e 18 31
e 4 133
e 78 82
e 59 69
e 143 211
e 36 85
e 108 190
e 8 252
e 55 98
e 127 203
e 228 255
e 99 141
e 140 142
e 85 206
e 44 205
e 2 208
e 84 247
e 117 195
e 15 147
e 120 200
e 161 201
e 87 252
e 18 152
e 133 139
e 78 203
e 205 244
e 97 216
e 59 190
e 31 91
e 17 193
e 50 141
e 36 206
e 110 155
e 91 142
e 55 219
e 22 42
e 94 147
e 173 211
e 11 149
e 85 98
e 52 150
e 112 201
e 38 252
e 131 214
e 43 101
e 84 139
e 103 152
e 106 157
e 147 158
e 188 196
e 18 44
e 45 147
e 191 201
e 58 86
e 22 163
e 108 203
e 209 255
e 168 217
e 61 91
e 121 142
e 80 104
e 85 219
e 126 220
e 79 145
e 98 158
e 43 222
e 82 150
e 101 163
e 142 201
e 161 214
e 54 88
e 73 101
e 59 203
e 100 204
e 119 217
e 12 91
e 31 104
e 36 219
e 77 220
e 75 147
e 135 161
e 80 225
e 195 212
e 176 199
e 47 48
e 214 225
e 52 163
e 179 204
e 112 214
e 10 166
e 115 219
e 109 145
e 68 107
e 73 222
e 147 171
e 12 212
e 86 161
e 89 166
e 130 204
e 77 112
e 149 217
e 42 91
e 168 230
e 61 104
e 80 117
e 121 155
e 107 220
e 47 169
e 126 233
e 19 107
e 98 171
e 63 150
e 82 163
e 142 214
e 101 176
e 202 228
e 21 153
e 95 102
e 54 101
e 119 230
e 12 104
e 72 118
e 58 220
e 77 233
e 116 161
e 61 225
e 176 212
e 80 238
e 195 225
e 28 48
e 47 61
e 74 164
e 19 228
e 107 112
e 93 177
e 46 102
e 10 179
e 51 180
e 137 220
e 156 233
e 49 107
e 109 158
e 54 222
e 68 120
e 21 45
e 114 236
e 26 123
e 12 225
e 86 174
e 172 177
e 72 239
e 31 238
e 89 179
e 130 217
e 28 169
e 47 182
e 162 169
e 107 233
e 19 120
e 60 121
e 5 185
e 46 223
e 146 161
e 13 46
e 151 239
e 63 163
e 51 72
e 104 164
e 123 177
e 68 241
e 49 228
e 183 228
e 21 166
e 95 115
e 81 180
e 26 244
e 155 166
e 72 131
e 125 223
e 58 233
e 158 171
e 37 110
e 42 225
e 116 174
e 61 238
e 102 239
e 157 175
e 14 126
e 74 177
e 201 218
e 93 190
e 19 241
e 60 242
e 239 244
e 13 167
e 46 115
e 137 233
e 51 193
e 178 234
e 197 247
e 49 120
e 90 121
e 35 185
e 150 172
e 95 236
e 134 164
e 153 177
e 53 239
e 172 190
e 72 252
e 213 228
e 39 75
e 70 179
e 111 180
e 56 244
e 190 244
e 83 118
e 28 182
e 102 131
e 88 233
e 129 234
e 69 183
e 14 18
e 146 174
e 60 134
e 46 236
e 151 252
e 13 59
e 44 126
e 104 177
e 123 190
e 164 191
e 90 242
e 2 129
e 35 77
e 62 180
e 81 193
e 208 234
e 34 118
e 39 196
e 125 236
e 37 123
e 78 124
e 97 137
e 83 239
e 138 175
e 102 252
e 50 62
e 143 253
e 69 75
e 14 139
e 55 140
e 60 255
e 27 78
e 13 180
e 32 193
e 118 196
e 44 247
e 11 70
e 178 247
e 71 121
e 159 234
e 90 134
e 131 135
e 2 250
e 150 185
e 117 237
e 76 199
e 136 250
e 48 137
e 34 239
e 134 177
e 53 252
e 139 255
e 153 190
e 120 242
e 92 180
e 111 193
e 152 194
e 50 183
e 69 196
e 129 247
e 8 186
e 127 137
e 27 199
e 113 239
e 173 253
e 11 191
e 85 140
e 71 242
e 145 191
e 90 255
e 164 204
e 44 139
e 57 78
e 2 142
e 117 129
e 62 193
e 122 207
e 208 247
e 15 81
e 180 185
e 166 250
e 18 86
e 78 137
e 23 201
e 97 150
e 138 188
e 124 253
e 83 252
e 50 75
e 36 140
e 55 153
e 41 255
e 182 194
e 25 247
e 159 247
e 200 248
e 11 83
e 71 134
e 112 135
e 38 186
e 117 250
e 76 212
e 203 253
e 115 140
e 15 202
e 120 255
e 194 204
e 18 207
e 133 194
e 92 193
e 152 207
e 59 245
e 45 81
e 50 196
e 91 197
e 124 145
e 110 210
e 196 250
e 22 97
e 8 199
e 108 137
e 27 212
e 154 253
e 113 252
e 127 150
e 11 204
e 85 153
e 145 204
e 186 205
e 38 78
e 57 91
e 43 156
e 84 194
e 103 207
e 189 210
e 15 94
e 106 212
e 147 213
e 59 137
e 100 138
e 31 38
e 163 194
e 22 218
e 182 207
e 75 81
e 121 197
e 80 159
e 140 210
e 52 97
e 38 199
e 57 212
e 98 213
e 115 153
e 101 218
e 87 91
e 54 143
e 73 156
e 18 220
e 133 207
e 174 208
e 193 221
e 45 94
e 91 210
e 177 213
e 110 223
e 130 138
e 22 110
e 149 151
e 75 202
e 89 100
e 107 154
e 52 218
e 126 167
e 79 92
e 43 169
e 170 210
e 84 207
e 63 84
e 82 97
e 101 110
e 87 212
e 147 226
e 100 151
e 86 216
e 119 164
e 12 38
e 31 51
e 163 207
e 204 208
e 77 167
e 75 94
e 61 159
e 80 172
e 121 210
e 140 223
e 19 162
e 93 111
e 79 213
e 52 110
e 63 205
e 137 154
e 82 218
e 156 167
e 216 218
e 54 156
e 114 170
e 155 208
e 174 221
e 26 57
e 12 159
e 193 234
e 31 172
e 72 173
e 158 213
e 86 108
e 177 226
e 70 100
e 130 151
e 116 216
e 149 164
e 135 229
e 28 103
e 47 116
e 88 154
e 107 167
e 167 218
e 93 232
e 19 54
e 46 157
e 170 223
e 63 97
e 49 162
e 82 110
e 68 175
e 169 227
e 21 100
e 81 114
e 26 178
e 86 229
e 172 232
e 70 221
e 58 167
e 89 234
e 223 234
e 42 159
e 61 172
e 102 173
e 47 237
e 14 60
e 181 237
e 74 111
e 19 175
e 146 216
e 79 226
e 46 49
e 63 218
e 51 127
e 137 167
e 123 232
e 35 119
e 21 221
e 95 170
e 114 183
e 155 221
e 26 70
e 53 173
e 72 186
e 199 227
e 158 226
e 218 240
e 70 113
e 56 178
e 116 229
e 135 242
e 28 116
e 88 167
e 14 181
e 74 232
e 47 129
e 93 245
e 60 68
e 151 186
e 51 248
e 211 237
e 49 175
e 68 188
e 35 240
e 150 227
e 169 240
e 21 113
e 62 114
e 109 226
e 81 127
e 141 178
e 153 232
e 34 52
e 172 245
e 70 234
e 37 57
e 56 70
e 28 237
e 102 186
e 47 250
e 162 237
e 14 73
e 55 74
e 74 124
e 146 229
e 206 243
e 13 114
e 44 181
e 118 130
e 159 168
e 123 245
e 164 246
e 21 234
e 62 235
e 117 171
e 81 248
e 76 133
e 48 71
e 34 173
e 53 186
e 180 227
e 39 251
e 199 240
e 92 114
e 37 178
e 218 253
e 56 191
e 138 230
e 157 243
e 50 117
e 69 130
e 14 194
e 129 181
e 74 245
e 160 248
e 27 133
e 13 235
e 113 173
e 118 251
e 44 73
e 71 176
e 35 253
e 150 240
e 236 243
e 134 232
e 122 141
e 153 245
e 194 246
e 6 195
e 92 235
e 111 248
e 185 197
e 39 143
e 245 248
e 50 238
e 83 186
e 69 251
e 229 240
e 143 200
e 36 74
e 124 187
e 60 202
e 187 243
e 13 127
e 44 194
e 159 181
e 104 245
e 145 246
e 57 133
e 2 197
e 76 146
e 136 197
e 15 136
e 48 84
e 180 240
e 221 241
e 18 141
e 92 127
e 37 191
e 97 205
e 138 243
e 50 130
e 69 143
e 8 133
e 27 146
e 13 248
e 113 186
e 173 200
e 233 251
e 11 138
e 131 203
e 217 243
e 84 128
e 43 90
e 103 141
e 48 205
e 134 245
e 175 246
e 15 28
e 87 133
e 6 208
e 166 197
e 92 248
e 4 135
e 78 84
e 105 187
e 50 251
e 124 200
e 143 213
e 36 87
e 77 88
e 22 152
e 127 205
e 85 208
e 38 133
e 57 146
e 2 210
e 43 211
e 98 147
e 15 149
e 101 152
e 54 77
e 73 90
e 18 154
e 133 141
e 78 205
e 152 154
e 119 206
e 205 246
e 36 208
e 110 157
e 55 221
e 22 44
e 8 146
e 75 136
e 94 149
e 154 200
e 11 151
e 52 152
e 112 203
e 131 216
e 10 155
e 43 103
e 115 208
e 84 141
e 87 146
e 73 211
e 207 211
e 45 149
e 31 214
e 191 203
e 210 216
e 58 88
e 108 205
e 149 206
e 168 219
e 121 144
e 85 221
e 38 146
e 79 147
e 82 152
e 142 203
e 161 216
e 202 217
e 54 90
e 73 103
e 59 205
e 100 206
e 119 219
e 12 93
e 17 208
e 77 222
e 75 149
e 94 162
e 176 201
e 135 163
e 195 214
e 80 227
e 214 227
e 61 214
e 93 166
e 112 216
e 179 206
e 46 91
e 10 168
e 115 221
e 109 147
e 54 211
e 188 211
e 21 34
e 114 225
e 147 173
e 12 214
e 86 163
e 31 227
e 191 216
e 70 155
e 58 101
e 89 168
e 130 206
e 149 219
e 42 93
e 102 107
e 121 157
e 107 222
e 126 235
e 19 109
e 63 152
e 51 61
e 123 166
e 68 230
e 183 217
e 35 53
e 21 155
e 95 104
e 202 230
e 26 233
e 141 220
e 100 219
e 53 107
e 72 120
e 58 222
e 77 235
e 56 112
e 42 214
e 61 227
e 176 214
e 135 176
e 28 50
e 88 101
e 74 166
e 19 230
e 179 219
e 93 179
e 46 104
e 32 169
e 137 222
e 51 182
e 156 235
e 49 109
e 35 174
e 68 122
e 95 225
e 150 161
e 114 238
e 21 47
e 26 125
e 12 227
e 153 166
e 213 217
e 172 179
e 72 241
e 86 176
e 70 168
e 130 219
e 171 220
e 89 181
e 190 233
e 83 107
e 28 171
e 88 222
e 60 123
e 5 187
e 46 225
e 146 163
e 13 48
e 151 241
e 51 74
e 104 166
e 123 179
e 68 243
e 183 230
e 95 117
e 62 169
e 26 246
e 141 233
e 227 236
e 34 107
e 53 120
e 39 185
e 125 225
e 37 112
e 56 125
e 42 227
e 116 176
e 157 177
e 102 241
e 83 228
e 28 63
e 201 220
e 60 244
e 220 233
e 13 169
e 118 185
e 137 235
e 51 195
e 178 236
e 35 187
e 150 174
e 95 238
e 169 187
e 136 239
e 48 126
e 153 179
e 53 241
e 139 244
e 213 230
e 92 169
e 37 233
e 111 182
e 56 246
e 190 246
e 83 120
e 69 185
e 129 236
e 60 136
e 146 176
e 27 188
e 113 228
e 13 61
e 104 179
e 145 180
e 49 243
e 164 193
e 90 244
e 2 131
e 76 80
e 62 182
e 48 247
e 81 195
e 122 196
e 208 236
e 34 120
e 39 198
e 125 238
e 166 239
e 185 252
e 37 125
e 78 126
e 97 139
e 83 241
e 157 190
e 138 177
e 143 255
e 14 141
e 55 142
e 201 233
e 27 80
e 13 182
e 159 236
e 71 123
e 57 188
e 131 137
e 117 239
e 76 201
e 136 252
e 90 136
e 48 139
e 34 241
e 175 180
e 134 179
e 120 244
e 92 182
e 37 246
e 111 195
e 78 247
e 152 196
e 212 247
e 50 185
e 124 134
e 143 147
e 196 239
e 110 199
e 108 126
e 8 188
e 127 139
e 27 201
e 187 190
e 173 255
e 11 193
e 85 142
e 44 141
e 145 193
e 71 244
e 84 183
e 43 145
e 103 196
e 117 131
e 15 83
e 120 136
e 87 188
e 166 252
e 18 88
e 59 126
e 78 139
e 138 190
e 124 255
e 50 77
e 36 142
e 55 155
e 182 196
e 108 247
e 140 199
e 200 250
e 11 85
e 52 86
e 38 188
e 112 137
e 57 201
e 131 150
e 117 252
e 76 214
e 203 255
e 115 142
e 15 204
e 175 193
e 194 206
e 73 145
e 59 247
e 193 210
e 45 83
e 91 199
e 110 212
e 196 252
e 8 201
e 94 204
e 154 255
e 11 206
e 85 155
e 167 194
e 126 156
e 186 207
e 38 80
e 43 158
e 170 199
e 230 250
e 87 201
e 18 101
e 100 140
e 45 204
e 119 153
e 59 139
e 36 155
e 163 196
e 22 220
e 80 161
e 121 199
e 140 212
e 38 201
e 112 150
e 79 202
e 82 207
e 15 217
e 101 220
e 115 155
e 54 145
e 18 222
e 174 210
e 86 97
e 31 161
e 91 212
e 130 140
e 75 204
e 149 153
e 94 217
e 135 218
e 89 102
e 33 207
e 107 156
e 52 220
e 167 207
e 19 43
e 186 220
e 10 223
e 170 212
e 101 112
e 109 202
e 147 228
e 21 89
e 100 153
e 45 217
e 86 218
e 58 156
e 77 169
e 22 233
e 89 223
e 61 161
e 121 212
e 162 213
e 181 226
e 74 100
e 19 164
e 93 113
e 98 228
e 63 207
e 137 156
e 51 116
e 156 169
e 82 220
e 101 233
e 21 210
e 54 158
e 114 172
e 155 210
e 174 223
e 12 161
e 86 110
e 31 174
e 177 228
e 218 229
e 89 115
e 75 217
e 130 153
e 116 218
e 47 118
e 88 156
e 74 221
e 107 169
e 93 234
e 19 56
e 46 159
e 10 236
e 151 175
e 211 226
e 51 237
e 49 164
e 68 177
e 128 228
e 169 229
e 21 102
e 81 116
e 26 180
e 141 167
e 172 234
e 39 119
e 125 159
e 144 172
e 70 223
e 37 46
e 204 223
e 58 169
e 42 161
e 89 236
e 61 174
e 102 175
e 14 62
e 181 239
e 74 113
e 19 177
e 93 126
e 60 178
e 146 218
e 63 220
e 137 169
e 104 221
e 123 234
e 51 129
e 35 121
e 21 223
e 95 172
e 81 237
e 155 223
e 114 185
e 48 60
e 53 175
e 158 228
e 199 229
e 72 188
e 37 167
e 111 116
e 56 180
e 70 115
e 157 232
e 69 119
e 14 183
e 129 170
e 93 247
e 60 70
e 46 172
e 151 188
e 51 250
e 44 62
e 211 239
e 90 178
e 150 229
e 169 242
e 62 116
e 81 129
e 26 193
e 153 234
e 122 130
e 172 247
e 134 221
e 70 236
e 111 237
e 83 175
e 28 239
e 102 188
e 47 252
e 14 75
e 55 76
e 60 191
e 187 232
e 206 245
e 13 116
e 32 129
e 44 183
e 104 234
e 159 170
e 123 247
e 164 248
e 76 135
e 117 173
e 136 186
e 81 250
e 62 237
e 48 73
e 34 175
e 120 178
e 53 188
e 139 191
e 180 229
e 199 242
e 39 253
e 37 180
e 111 129
e 138 232
e 97 194
e 157 245
e 243 248
e 50 119
e 14 196
e 129 183
e 55 197
e 113 175
e 27 135
e 118 253
e 233 240
e 11 127
e 44 75
e 71 178
e 90 191
e 217 232
e 35 255
e 150 242
e 62 129
e 103 130
e 48 194
e 122 143
e 153 247
e 134 234
e 194 248
e 6 197
e 92 237
e 166 186
e 226 237
e 111 250
e 185 199
e 83 188
e 50 240
e 143 202
e 36 76
e 55 89
e 187 245
e 44 196
e 85 197
e 38 122
e 57 135
e 2 199
e 117 186
e 62 250
e 136 199
e 103 251
e 15 138
e 120 191
e 180 242
e 139 204
e 221 243
e 18 143
e 59 181
e 78 194
e 92 129
e 97 207
e 138 245
e 91 133
e 36 197
e 110 146
e 55 210
e 182 251
e 8 135
e 94 138
e 173 202
e 11 140
e 85 89
e 71 191
e 131 205
e 217 245
e 84 130
e 43 92
e 103 143
e 48 207
e 175 248
e 115 197
e 87 135
e 6 210
e 92 250
e 133 251
e 18 35
e 59 73
e 45 138
e 50 253
e 124 202
e 36 89
e 22 154
e 108 194
e 127 207
e 168 208
e 80 95
e 66 197
e 121 133
e 85 210
e 38 135
e 98 149
e 84 251
e 15 151
e 101 154
e 161 205
e 54 79
e 73 92
e 18 156
e 133 143
e 78 207
e 119 208
e 205 248
e 91 146
e 36 210
e 163 251
e 77 211
e 110 159
e 22 46
e 75 138
e 94 151
e 80 216
e 195 203
e 154 202
e 214 216
e 33 141
e 52 154
e 131 218
e 10 157
e 84 143
e 115 210
e 87 148
e 73 213
e 188 200
e 147 162
e 207 213
e 45 151
e 86 152
e 31 216
e 191 205
e 210 218
e 77 103
e 108 207
e 149 208
e 22 167
e 42 82
e 168 221
e 61 95
e 89 157
e 121 146
e 80 108
e 140 159
e 19 98
e 79 149
e 43 226
e 63 141
e 82 154
e 101 167
e 161 218
e 100 208
e 119 221
e 12 95
e 31 108
e 72 109
e 58 211
e 75 151
e 116 152
e 61 216
e 176 203
e 80 229
e 195 216
e 28 39
e 47 52
e 214 229
e 19 219
e 93 168
e 52 167
e 46 93
e 137 211
e 49 98
e 68 111
e 109 149
e 54 213
e 73 226
e 21 36
e 114 227
e 26 114
e 12 216
e 31 229
e 72 230
e 70 157
e 58 103
e 130 208
e 89 170
e 149 221
e 42 95
e 61 108
e 102 109
e 47 173
e 88 211
e 126 237
e 19 111
e 146 152
e 46 214
e 79 162
e 51 63
e 49 219
e 123 168
e 68 232
e 183 219
e 82 167
e 202 232
e 21 157
e 81 171
e 26 235
e 141 222
e 100 221
e 53 109
e 72 122
e 158 162
e 56 114
e 42 216
e 61 229
e 135 178
e 176 216
e 14 117
e 88 103
e 74 168
e 19 232
e 93 181
e 220 222
e 179 221
e 156 237
e 197 238
e 49 111
e 35 176
e 68 124
e 95 227
e 109 162
e 21 49
e 114 240
e 150 163
e 26 127
e 153 168
e 12 229
e 213 219
e 72 243
e 53 230
e 70 170
e 111 171
e 56 235
e 171 222
e 130 221
e 190 235
e 83 109
e 28 173
e 102 122
e 47 186
e 162 173
e 148 238
e 46 227
e 151 243
e 13 50
e 44 117
e 49 232
e 123 181
e 164 182
e 68 245
e 183 232
e 35 68
e 21 170
e 62 171
e 26 248
e 141 235
e 227 238
e 34 109
e 53 122
e 125 227
e 39 187
e 185 241
e 37 114
e 56 127
e 42 229
e 83 230
e 138 166
e 102 243
e 157 179
e 14 130
e 74 181
e 201 222
e 60 246
e 220 235
e 27 69
e 13 171
e 44 238
e 159 225
e 118 187
e 178 238
e 71 112
e 197 251
e 90 125
e 150 176
e 95 240
e 136 241
e 134 168
e 34 230
e 153 181
e 139 246
e 39 79
e 92 171
e 37 235
e 212 236
e 50 174
e 14 251
e 129 238
e 113 230
e 60 138
e 13 63
e 44 130
e 104 181
e 71 233
e 90 246
e 164 195
e 145 182
e 57 69
e 2 133
e 117 120
e 7 248
e 103 185
e 208 238
e 15 72
e 106 190
e 125 240
e 39 200
e 166 241
e 18 77
e 97 141
e 138 179
e 124 244
e 36 131
e 160 197
e 201 235
e 113 122
e 25 238
e 27 82
e 159 238
e 118 200
e 178 251
e 219 252
e 71 125
e 57 190
e 131 139
e 76 203
e 134 181
e 120 246
e 92 184
e 133 185
e 37 248
e 45 72
e 50 187
e 124 136
e 69 200
e 36 252
e 110 201
e 196 241
e 22 88
e 8 190
e 127 141
e 27 203
e 154 244
e 113 243
e 11 195
e 85 144
e 71 246
e 145 195
e 186 196
e 57 82
e 84 185
e 208 251
e 122 211
e 15 85
e 87 190
e 207 255
e 18 90
e 78 141
e 45 193
e 163 185
e 96 195
e 55 157
e 140 201
e 200 252
e 11 87
e 52 88
e 38 190
e 112 139
e 57 203
e 98 204
e 131 152
e 15 206
e 175 195
e 73 147
e 18 211
e 152 211
e 193 212
e 45 85
e 31 150
e 91 201
e 237 255
e 22 101
e 8 203
e 75 193
e 108 141
e 11 208
e 85 157
e 38 82
e 79 83
e 230 252
e 87 203
e 188 255
e 147 217
e 100 142
e 45 206
e 119 155
e 31 42
e 58 145
e 163 198
e 22 222
e 77 158
e 182 211
e 94 98
e 61 150
e 121 201
e 80 163
e 140 214
e 52 101
e 38 203
e 93 102
e 79 204
e 98 217
e 156 158
e 101 222
e 114 161
e 155 199
e 174 212
e 193 225
e 26 48
e 12 150
e 31 163
e 158 204
e 91 214
e 177 217
e 130 142
e 89 104
e 149 155
e 75 206
e 94 219
e 135 220
e 47 107
e 88 145
e 107 158
e 52 222
e 126 171
e 19 45
e 10 225
e 170 214
e 63 88
e 82 101
e 68 166
e 109 204
e 21 91
e 147 230
e 26 169
e 100 155
e 86 220
e 12 42
e 58 158
e 89 225
e 77 171
e 223 225
e 42 150
e 61 163
e 121 214
e 47 228
e 181 228
e 74 102
e 19 166
e 93 115
e 79 217
e 63 209
e 51 118
e 82 222
e 156 171
e 35 110
e 21 212
e 155 212
e 114 174
e 174 225
e 26 61
e 12 163
e 53 164
e 86 112
e 158 217
e 177 230
e 70 104
e 56 169
e 89 117
e 116 220
e 135 233
e 28 107
e 47 120
e 74 223
e 93 236
e 46 161
e 10 238
e 151 177
e 211 228
e 51 239
e 63 101
e 49 166
e 68 179
e 109 217
e 150 218
e 21 104
e 81 118
e 26 182
e 141 169
e 153 223
e 86 233
e 53 56
e 125 161
e 70 225
e 39 121
e 89 238
e 37 48
e 204 225
e 42 163
e 83 164
e 28 228
e 47 241
e 162 228
e 74 115
e 60 180
e 146 220
e 206 234
e 118 121
e 104 223
e 63 222
e 51 131
e 123 236
e 35 123
e 21 225
e 95 174
e 136 175
e 81 239
e 48 62
e 34 164
e 53 177
e 139 180
e 72 190
e 180 218
e 39 242
e 218 244
e 37 169
e 56 182
e 116 233
e 157 234
e 28 120
e 69 121
e 14 185
e 129 172
e 74 236
e 148 185
e 60 72
e 13 226
e 132 177
e 27 124
e 113 164
e 51 252
e 104 115
e 49 179
e 90 180
e 169 244
e 62 118
e 81 131
e 48 183
e 153 236
e 134 223
e 34 56
e 92 226
e 39 134
e 125 174
e 185 188
e 83 177
e 28 241
e 102 190
e 143 191
e 69 242
e 55 78
e 41 180
e 146 233
e 60 193
e 187 234
e 206 247
e 13 118
e 44 185
e 159 172
e 118 134
e 178 185
e 145 237
e 164 250
e 57 124
e 2 188
e 76 137
e 117 175
e 136 188
e 81 252
e 122 253
e 48 75
e 34 177
e 120 180
e 139 193
e 39 255
e 199 244
e 92 118
e 37 182
e 111 131
e 157 247
e 50 121
e 69 134
e 110 135
e 55 199
e 113 177
e 13 239
e 27 137
e 173 191
e 118 255
e 233 242
e 11 129
e 71 180
e 90 193
e 217 234
e 236 247
e 43 81
e 84 119
e 103 132
e 48 196
e 122 145
e 15 19
e 194 250
e 87 124
e 6 199
e 166 188
e 111 252
e 226 239
e 185 201
e 152 253
e 92 239
e 124 191
e 69 255
e 108 183
e 8 245
e 127 196
e 55 91
e 187 247
e 228 248
e 11 250
e 85 199
e 145 250
e 38 124
e 57 137
e 2 201
e 43 202
e 117 188
e 103 253
e 76 150
e 15 140
e 120 193
e 18 145
e 59 183
e 78 196
e 138 247
e 50 134
e 91 135
e 36 199
e 110 148
e 55 212
e 182 253
e 22 35
e 8 137
e 94 140
e 154 191
e 173 204
e 11 142
e 85 91
e 71 193
e 52 143
e 112 194
e 217 247
e 131 207
e 38 245
e 43 94
e 115 199
e 103 145
e 175 250
e 87 137
e 73 202
e 147 151
e 6 212
e 133 253
e 18 37
e 59 75
e 45 140
e 191 194
e 124 204
e 50 255
e 22 156
e 108 196
e 168 210
e 80 97
e 66 199
e 85 212
e 167 251
e 126 213
e 38 137
e 79 138
e 98 151
e 84 253
e 82 143
e 15 153
e 142 194
e 161 207
e 54 81
e 18 158
e 100 197
e 59 196
e 205 250
e 12 84
e 31 97
e 17 199
e 36 212
e 163 253
e 77 213
e 75 140
e 94 153
e 154 204
e 195 205
e 80 218
e 214 218
e 52 156
e 112 207
e 10 159
e 115 212
e 156 213
e 54 202
e 147 164
e 188 202
e 12 205
e 86 154
e 31 218
e 45 153
e 191 207
e 210 220
e 58 92
e 130 197
e 149 210
e 42 84
e 168 223
e 61 97
e 80 110
e 107 213
e 126 226
e 19 100
e 79 151
e 63 143
e 82 156
e 101 169
e 68 221
e 183 208
e 54 94
e 21 146
e 100 210
e 119 223
e 12 97
e 31 110
e 72 111
e 58 213
e 77 226
e 75 153
e 116 154
e 176 205
e 19 221
e 179 210
e 93 170
e 46 95
e 10 172
e 51 173
e 137 213
e 156 226
e 49 100
e 109 151
e 68 113
e 128 164
e 95 216
e 21 38
e 114 229
e 26 116
e 12 218
e 86 167
e 70 159
e 130 210
e 89 172
e 149 223
e 190 224
e 42 97
e 28 162
e 88 213
e 107 226
e 19 113
e 146 154
e 46 216
e 60 114
e 13 39
e 151 232
e 63 156
e 104 157
e 49 221
e 68 234
e 35 57
e 21 159
e 95 108
e 81 173
e 26 237
e 53 111
e 72 124
e 158 164
e 58 226
e 56 116
e 42 218
e 116 167
e 157 168
e 102 232
e 28 54
e 14 119
e 93 183
e 179 223
e 137 226
e 178 227
e 51 186
e 197 240
e 35 178
e 95 229
e 169 178
e 134 157
e 26 129
e 153 170
e 53 232
e 213 221
e 172 183
e 232 234
e 70 172
e 111 173
e 56 237
e 190 237
e 83 111
e 28 175
e 102 124
e 88 226
e 129 227
e 146 167
e 46 229
e 151 245
e 13 52
e 44 119
e 104 170
e 49 234
e 123 183
e 90 235
e 35 70
e 62 173
e 81 186
e 122 187
e 208 227
e 227 240
e 34 111
e 53 124
e 125 229
e 185 243
e 37 116
e 56 129
e 138 168
e 97 130
e 83 232
e 102 245
e 143 246
e 55 133
e 60 248
e 220 237
e 27 71
e 44 240
e 159 227
e 11 63
e 197 253
e 71 114
e 90 127
e 2 243
e 35 191
e 117 230
e 136 243
e 150 178
e 48 130
e 34 232
e 153 183
e 120 235
e 139 248
e 134 170
e 92 173
e 37 237
e 111 186
e 152 187
e 97 251
e 171 237
e 56 250
e 212 238
e 50 176
e 14 253
e 55 254
e 129 240
e 127 130
e 113 232
e 173 246
e 85 133
e 71 235
e 90 248
e 164 197
e 38 58
e 57 71
e 2 135
e 117 122
e 103 187
e 48 251
e 122 200
e 227 253
e 15 74
e 166 243
e 18 79
e 59 117
e 78 130
e 97 143
e 138 181
e 124 246
e 83 245
e 36 133
e 182 187
e 201 237
e 27 84
e 25 240
e 118 202
e 200 241
e 11 76
e 159 240
e 71 127
e 112 128
e 38 179
e 131 141
e 117 243
e 76 205
e 203 246
e 115 133
e 15 195
e 48 143
e 92 186
e 18 200
e 133 187
e 152 200
e 78 251
e 45 74
e 212 251
e 59 238
e 91 190
e 124 138
e 196 243
e 22 90
e 108 130
e 127 143
e 27 205
e 154 246
e 66 133
e 11 197
e 85 146
e 71 248
e 112 249
e 145 197
e 38 71
e 57 84
e 43 149
e 84 187
e 115 254
e 103 200
e 15 87
e 87 192
e 18 92
e 59 130
e 45 195
e 78 143
e 36 146
e 77 147
e 108 251
e 22 211
e 182 200
e 80 152
e 121 190
e 140 203
e 52 90
e 38 192
e 112 141
e 57 205
e 98 206
e 115 146
e 15 208
e 101 211
e 54 136
e 73 149
e 18 213
e 133 200
e 174 201
e 45 87
e 86 88
e 31 152
e 177 206
e 110 216
e 22 103
e 75 195
e 94 208
e 11 210
e 107 147
e 19 34
e 79 85
e 10 214
e 170 203
e 43 162
e 63 77
e 84 200
e 87 205
e 147 219
e 45 208
e 119 157
e 12 31
e 31 44
e 58 147
e 163 200
e 75 87
e 121 203
e 140 216
e 181 217
e 19 155
e 93 104
e 79 206
e 52 103
e 98 219
e 137 147
e 82 211
e 51 107
e 54 149
e 73 162
e 155 201
e 174 214
e 193 227
e 86 101
e 72 166
e 158 206
e 70 93
e 75 208
e 149 157
e 135 222
e 88 147
e 93 225
e 126 173
e 19 47
e 167 211
e 79 98
e 10 227
e 170 216
e 211 217
e 63 90
e 82 103
e 49 155
e 109 206
e 68 168
e 169 220
e 21 93
e 81 107
e 26 171
e 141 158
e 86 222
e 89 227
e 204 214
e 223 227
e 42 152
e 102 166
e 47 230
e 162 217
e 181 230
e 14 53
e 74 104
e 19 168
e 165 222
e 63 211
e 51 120
e 156 173
e 123 225
e 35 112
e 21 214
e 95 163
e 155 214
e 114 176
e 26 63
e 53 166
e 72 179
e 199 220
e 158 219
e 218 233
e 56 171
e 116 222
e 135 235
e 28 109
e 88 160
e 129 161
e 74 225
e 47 122
e 93 238
e 46 163
e 151 179
e 51 241
e 211 230
e 49 168
e 35 233
e 150 220
e 68 181
e 109 219
e 62 107
e 153 225
e 141 171
e 34 45
e 53 58
e 125 163
e 39 123
e 89 240
e 83 166
e 28 230
e 102 179
e 47 243
e 162 230
e 74 117
e 146 222
e 60 182
e 206 236
e 13 107
e 44 174
e 118 123
e 104 225
e 159 161
e 123 238
e 35 125
e 21 227
e 76 126
e 136 177
e 95 176
e 62 228
e 53 179
e 180 220
e 139 182
e 199 233
e 39 244
e 92 107
e 37 171
e 218 246
e 97 185
e 138 223
e 157 236
e 50 110
e 69 123
e 14 187
e 129 174
e 74 238
e 27 126
e 13 228
e 192 230
e 151 192
e 118 244
e 71 169
e 90 182
e 35 246
e 150 233
e 2 69
e 62 120
e 48 185
e 134 225
e 153 238
e 122 134
e 92 228
e 125 176
e 111 241
e 39 136
e 28 243
e 69 244
e 229 233
e 143 193
e 124 180
e 55 80
e 27 247
e 60 195
e 187 236
e 13 120
e 44 187
e 159 174
e 104 238
e 145 239
e 164 252
e 57 126
e 2 190
e 76 139
e 62 241
e 136 190
e 117 177
e 122 255
e 15 129
e 34 179
e 48 77
e 120 182
e 139 195
e 221 234
e 180 233
e 92 120
e 78 185
e 138 236
e 243 252
e 50 123
e 36 188
e 69 136
e 55 201
e 52 223
e 113 179
e 13 241
e 154 180
e 173 193
e 11 131
e 71 182
e 57 247
e 131 196
e 90 195
e 217 236
e 43 83
e 84 121
e 103 134
e 134 238
e 122 147
e 15 21
e 194 252
e 92 241
e 152 255
e 45 129
e 36 80
e 96 131
e 8 247
e 22 145
e 108 185
e 228 250
e 11 252
e 85 201
e 145 252
e 38 126
e 57 139
e 2 203
e 98 140
e 117 190
e 103 255
e 84 242
e 15 142
e 101 145
e 120 195
e 161 196
e 221 247
e 73 83
e 18 147
e 59 185
e 205 239
e 119 199
e 31 86
e 91 137
e 36 201
e 110 150
e 55 214
e 182 255
e 163 242
e 22 37
e 8 139
e 75 129
e 94 142
e 154 193
e 112 196
e 84 134
e 115 201
e 175 252
e 216 253
e 87 139
e 73 204
e 147 153
e 133 255
e 45 142
e 31 207
e 191 196
e 58 81
e 77 94
e 22 158
e 149 199
e 168 212
e 61 86
e 121 137
e 140 150
e 85 214
e 167 253
e 38 139
e 79 140
e 98 153
e 43 217
e 84 255
e 82 145
e 142 196
e 101 158
e 54 83
e 100 199
e 119 212
e 246 253
e 12 86
e 205 252
e 17 201
e 58 202
e 91 150
e 163 255
e 75 142
e 61 207
e 135 156
e 94 155
e 195 207
e 176 194
e 214 220
e 80 220
e 52 158
e 179 199
e 10 161
e 68 102
e 54 204
e 109 140
e 21 27
e 147 166
e 188 204
e 114 218
e 12 207
e 86 156
e 31 220
e 58 94
e 89 161
e 130 199
e 77 107
e 168 225
e 42 86
e 47 164
e 88 202
e 121 150
e 126 228
e 19 102
e 79 153
e 63 145
e 82 158
e 123 159
e 68 223
e 183 210
e 202 223
e 35 46
e 95 97
e 26 226
e 100 212
e 141 213
e 53 100
e 72 113
e 77 228
e 42 207
e 116 156
e 61 220
e 135 169
e 80 233
e 195 220
e 28 43
e 176 207
e 74 159
e 19 223
e 93 172
e 179 212
e 198 225
e 46 97
e 10 174
e 51 175
e 156 228
e 49 102
e 109 153
e 150 154
e 54 217
e 68 115
e 95 218
e 26 118
e 12 220
e 86 169
e 53 221
e 72 234
e 130 212
e 171 213
e 56 226
e 190 226
e 89 174
e 83 100
e 47 177
e 107 228
e 146 156
e 60 116
e 46 218
e 151 234
e 63 158
e 104 159
e 49 223
e 123 172
e 68 236
e 183 223
e 21 161
e 95 110
e 62 162
e 26 239
e 141 226
e 34 100
e 53 113
e 72 126
e 39 178
e 125 218
e 56 118
e 42 220
e 116 169
e 157 170
e 83 221
e 102 234
e 28 56
e 14 121
e 74 172
e 19 236
e 201 213
e 220 226
e 27 60
e 13 162
e 137 228
e 51 188
e 178 229
e 197 242
e 90 116
e 35 180
e 150 167
e 169 180
e 48 119
e 34 221
e 153 172
e 53 234
e 213 223
e 172 185
e 72 247
e 139 237
e 39 70
e 37 226
e 171 226
e 190 239
e 83 113
e 28 177
e 69 178
e 14 242
e 129 229
e 113 221
e 146 169
e 13 54
e 44 121
e 104 172
e 145 173
e 49 236
e 90 237
e 62 175
e 81 188
e 208 229
e 34 113
e 39 191
e 166 232
e 185 245
e 37 118
e 78 119
e 83 234
e 157 183
e 102 247
e 50 57
e 143 248
e 14 134
e 55 135
e 201 226
e 220 239
e 27 73
e 13 175
e 44 242
e 159 229
e 118 191
e 71 116
e 90 129
e 2 245
e 35 193
e 76 194
e 136 245
e 222 248
e 117 232
e 134 172
e 34 234
e 120 237
e 139 250
e 92 175
e 37 239
e 111 188
e 78 240
e 97 253
e 212 240
e 69 191
e 14 255
e 129 242
e 196 232
e 108 119
e 22 79
e 27 194
e 113 234
e 132 247
e 173 248
e 11 186
e 85 135
e 71 237
e 145 186
e 44 134
e 38 60
e 131 251
e 57 73
e 2 137
e 76 86
e 43 138
e 84 176
e 48 253
e 208 242
e 122 202
e 166 245
e 97 145
e 138 183
e 50 70
e 36 135
e 108 240
e 127 253
e 44 255
e 159 242
e 200 243
e 11 78
e 52 79
e 38 181
e 112 130
e 57 194
e 131 143
e 76 207
e 203 248
e 115 135
e 15 197
e 175 186
e 120 250
e 161 251
e 73 138
e 18 202
e 59 240
e 78 253
e 152 202
e 193 203
e 45 76
e 50 191
e 124 140
e 196 245
e 110 205
e 22 92
e 8 194
e 127 145
e 27 207
e 154 248
e 94 197
e 66 135
e 11 199
e 167 187
e 126 149
e 112 251
e 38 73
e 186 200
e 43 151
e 103 202
e 230 243
e 15 89
e 87 194
e 188 246
e 18 94
e 100 133
e 45 197
e 119 146
e 191 251
e 77 149
e 22 213
e 108 253
e 182 202
e 242 253
e 80 154
e 52 92
e 38 194
e 112 143
e 98 208
e 15 210
e 142 251
e 101 213
e 54 138
e 73 151
e 133 202
e 174 203
e 12 141
e 86 90
e 31 154
e 45 89
e 91 205
e 177 208
e 75 197
e 94 210
e 47 98
e 52 213
e 126 162
e 167 200
e 19 36
e 186 213
e 10 216
e 170 205
e 63 79
e 82 92
e 68 157
e 109 195
e 128 208
e 21 82
e 147 221
e 100 146
e 45 210
e 86 211
e 119 159
e 58 149
e 89 216
e 22 226
e 77 162
e 75 89
e 42 141
e 61 154
e 80 167
e 121 205
e 162 206
e 181 219
e 19 157
e 79 208
e 98 221
e 63 200
e 137 149
e 82 213
e 51 109
e 101 226
e 156 162
e 54 151
e 95 152
e 40 216
e 155 203
e 174 216
e 26 52
e 12 154
e 86 103
e 158 208
e 177 221
e 89 108
e 75 210
e 149 159
e 116 211
e 135 224
e 28 98
e 88 149
e 107 162
e 52 226
e 93 227
e 19 49
e 46 152
e 10 229
e 151 168
e 211 219
e 51 230
e 49 157
e 68 170
e 169 222
e 21 95
e 81 109
e 26 173
e 172 227
e 125 152
e 70 216
e 58 162
e 89 229
e 42 154
e 28 219
e 102 168
e 47 232
e 162 219
e 61 167
e 14 55
e 181 232
e 19 170
e 93 119
e 60 171
e 63 213
e 51 122
e 137 162
e 123 227
e 82 226
e 35 114
e 21 216
e 95 165
e 81 230
e 34 155
e 53 168
e 72 181
e 218 235
e 37 160
e 70 108
e 56 173
e 28 111
e 69 112
e 88 162
e 129 163
e 74 227
e 14 176
e 93 240
e 151 181
e 44 55
e 211 232
e 49 170
e 90 171
e 35 235
e 150 222
e 62 109
e 81 122
e 134 214
e 153 227
e 34 47
e 172 240
e 39 125
e 70 229
e 111 230
e 83 168
e 28 232
e 102 181
e 143 182
e 47 245
e 14 68
e 55 69
e 187 225
e 44 176
e 118 125
e 104 227
e 159 163
e 123 240
e 164 241
e 2 179
e 35 127
e 62 230
e 21 229
e 136 179
e 117 166
e 81 243
e 34 168
e 120 171
e 180 222
e 199 235
e 92 109
e 37 173
e 111 122
e 56 186
e 97 187
e 138 225
e 157 238
e 69 125
e 129 176
e 74 240
e 55 190
e 113 168
e 13 230
e 173 182
e 44 68
e 71 171
e 217 225
e 35 248
e 236 238
e 2 71
e 150 235
e 62 122
e 103 123
e 134 227
e 48 187
e 153 240
e 194 241
e 122 136
e 92 230
e 166 179
e 111 243
e 83 181
e 124 182
e 69 246
e 229 235
e 143 195
e 36 69
e 50 233
e 55 82
e 127 187
e 187 238
e 206 251
e 44 189
e 118 138
e 85 190
e 159 176
e 164 254
e 38 115
e 76 141
e 62 243
e 103 244
e 15 131
e 48 79
e 139 197
e 221 236
e 180 235
e 18 136
e 92 122
e 78 187
e 59 174
e 138 238
e 97 200
e 91 126
e 36 190
e 110 139
e 55 203
e 22 26
e 94 131
e 27 141
e 154 182
e 113 181
e 173 195
e 233 246
e 11 133
e 112 185
e 217 238
e 43 85
e 29 187
e 84 123
e 15 252
e 48 200
e 103 136
e 115 190
e 175 241
e 92 243
e 166 192
e 133 244
e 18 28
e 45 131
e 50 246
e 124 195
e 36 82
e 108 187
e 22 147
e 127 200
e 168 201
e 85 203
e 186 255
e 57 141
e 98 142
e 43 206
e 101 147
e 142 185
e 54 72
e 73 85
e 18 149
e 133 136
e 78 200
e 119 201
e 205 241
e 31 88
e 91 139
e 36 203
e 163 244
e 110 152
e 77 204
e 22 39
e 75 131
e 80 209
e 154 195
e 52 147
e 131 211
e 10 150
e 43 98
e 84 136
e 216 255
e 54 193
e 87 141
e 73 206
e 147 155
e 188 193
e 86 145
e 75 252
e 149 201
e 108 200
e 168 214
e 61 88
e 80 101
e 121 139
e 107 204
e 167 255
e 126 217
e 19 91
e 79 142
e 43 219
e 63 134
e 82 147
e 101 160
e 161 211
e 73 98
e 100 201
e 119 214
e 12 88
e 31 101
e 72 102
e 58 204
e 116 145
e 176 196
e 80 222
e 214 222
e 19 212
e 93 161
e 179 201
e 46 86
e 10 163
e 137 204
e 156 217
e 109 142
e 54 206
e 68 104
e 73 219
e 188 206
e 114 220
e 26 107
e 86 158
e 31 222
e 191 211
e 72 223
e 70 150
e 89 163
e 130 201
e 149 214
e 42 88
e 61 101
e 47 166
e 107 217
e 126 230
e 19 104
e 46 207
e 79 155
e 63 147
e 51 56
e 49 212
e 123 161
e 35 48
e 21 150
e 202 225
e 100 214
e 53 102
e 72 115
e 58 217
e 56 107
e 116 158
e 61 222
e 102 223
e 135 171
e 28 45
e 47 58
e 74 161
e 19 225
e 179 214
e 93 174
e 137 217
e 51 177
e 156 230
e 49 104
e 35 169
e 150 156
e 68 117
e 109 155
e 21 42
e 114 233
e 95 220
e 26 120
e 153 161
e 12 222
e 172 174
e 72 236
e 53 223
e 39 59
e 70 163
e 130 214
e 56 228
e 190 228
e 42 101
e 83 102
e 28 166
e 102 115
e 88 217
e 129 218
e 47 179
e 146 158
e 60 118
e 46 220
e 13 43
e 151 236
e 104 161
e 49 225
e 123 174
e 68 238
e 183 225
e 21 163
e 95 112
e 7 228
e 62 164
e 26 241
e 34 102
e 53 115
e 125 220
e 39 180
e 144 233
e 185 234
e 37 107
e 42 222
e 83 223
e 157 172
e 138 159
e 102 236
e 14 123
e 74 174
e 60 239
e 220 228
e 27 62
e 13 164
e 159 218
e 51 190
e 118 180
e 197 244
e 90 118
e 35 182
e 150 169
e 95 233
e 136 234
e 134 161
e 48 121
e 34 223
e 153 174
e 139 239
e 213 225
e 53 236
e 39 72
e 92 164
e 111 177
e 56 241
e 97 242
e 37 228
e 212 229
e 171 228
e 28 179
e 69 180
e 14 244
e 27 183
e 60 131
e 113 223
e 151 249
e 13 56
e 44 123
e 145 175
e 90 239
e 164 188
e 62 177
e 48 242
e 81 190
e 122 191
e 34 115
e 39 193
e 166 234
e 18 70
e 37 120
e 78 121
e 185 247
e 138 172
e 83 236
e 157 185
e 124 237
e 143 250
e 69 72
e 36 124
e 55 137
e 201 228
e 127 242
e 27 75
e 13 177
e 44 244
e 118 193
e 178 244
e 219 245
e 71 118
e 57 183
e 2 247
e 76 196
e 90 131
e 117 234
e 222 250
e 136 247
e 48 134
e 34 236
e 120 239
e 139 252
e 92 177
e 37 241
e 78 242
e 133 178
e 97 255
e 212 242
e 152 191
e 50 180
e 124 129
e 110 194
e 196 234
e 108 121
e 8 183
e 22 81
e 27 196
e 154 237
e 113 236
e 173 250
e 11 188
e 85 137
e 71 239
e 145 188
e 90 252
e 131 253
e 57 75
e 2 139
e 43 140
e 84 178
e 103 191
e 48 255
e 208 244
e 122 204
e 120 131
e 166 247
e 207 248
e 78 134
e 119 135
e 124 250
e 210 253
e 36 137
e 22 202
e 55 150
e 108 242
e 140 194
e 200 245
e 11 80
e 52 81
e 38 183
e 57 196
e 131 145
e 117 247
e 203 250
e 115 137
e 15 199
e 175 188
e 161 253
e 73 140
e 18 204
e 59 242
e 78 255
e 133 191
e 193 205
e 152 204
e 91 194
e 110 207
e 237 248
e 196 247
e 22 94
e 8 196
e 94 199
e 108 134
e 11 201
e 85 150
e 126 151
e 112 253
e 186 202
e 38 75
e 43 153
e 170 194
e 84 191
e 189 207
e 230 245
e 87 196
e 147 210
e 188 248
e 100 135
e 45 199
e 105 250
e 12 22
e 31 35
e 58 138
e 163 191
e 108 255
e 77 151
e 182 204
e 61 143
e 121 194
e 80 156
e 38 196
e 112 145
e 79 197
e 98 210
e 115 150
e 15 212
e 142 253
e 82 202
e 54 140
e 73 153
e 18 217
e 114 154
e 59 255
e 193 218
e 12 143
e 31 156
e 70 84
e 89 97
e 75 199
e 94 212
e 135 213
e 176 251
e 47 100
e 88 138
e 107 151
e 126 164
e 167 202
e 19 38
e 79 89
e 10 218
e 170 207
e 63 81
e 82 94
e 142 145
e 109 197
e 68 159
e 147 223
e 86 213
e 12 35
e 58 151
e 77 164
e 89 218
e 61 156
e 47 221
e 162 208
e 121 207
e 181 221
e 74 95
e 19 159
e 93 108
e 79 210
e 63 202
e 51 111
e 82 215
e 156 164
e 101 228
e 54 153
e 21 205
e 95 154
e 114 167
e 155 205
e 174 218
e 26 54
e 53 157
e 72 170
e 158 210
e 177 223
e 70 97
e 56 162
e 75 212
e 116 213
e 89 110
e 135 226
e 28 100
e 88 151
e 47 113
e 107 164
e 74 216
e 46 154
e 151 170
e 51 232
e 211 221
e 63 94
e 49 159
e 109 210
e 68 172
e 21 97
e 62 98
e 81 111
e 26 175
e 141 162
e 86 226
e 172 229
e 39 114
e 70 218
e 204 218
e 42 156
e 83 157
e 28 221
e 102 170
e 47 234
e 162 221
e 14 57
e 74 108
e 19 172
e 146 213
e 60 173
e 13 98
e 104 216
e 137 164
e 51 124
e 123 229
e 35 116
e 21 218
e 95 167
e 81 232
e 34 157
e 53 170
e 180 211
e 72 183
e 199 224
e 39 235
e 92 98
e 37 162
e 139 173
e 56 175
e 218 237
e 116 226
e 157 227
e 28 113
e 69 114
e 14 178
e 129 165
e 74 229
e 93 242
e 113 157
e 13 219
e 46 167
e 44 57
e 49 172
e 90 173
e 35 237
e 169 237
e 62 111
e 81 124
e 134 216
e 153 229
e 34 49
e 172 242
e 125 167
e 166 168
e 111 232
e 39 127
e 37 54
e 28 234
e 69 235
e 14 70
e 55 71
e 146 226
e 187 227
e 60 186
e 206 240
e 13 111
e 44 178
e 104 229
e 123 242
e 164 243
e 2 181
e 76 130
e 62 232
e 136 181
e 117 168
e 122 246
e 81 245
e 48 68
e 34 170
e 120 173
e 139 186
e 39 248
e 199 237
e 92 111
e 37 175
e 111 124
e 157 240
e 14 191
e 55 192
e 129 178
e 113 170
e 13 232
e 27 130
e 118 248
e 233 235
e 11 122
e 71 173
e 35 250
e 131 187
e 236 240
e 76 251
e 43 74
e 84 112
e 103 125
e 217 227
e 122 138
e 153 242
e 194 243
e 87 117
e 92 232
e 166 181
e 111 245
e 226 232
e 185 194
e 152 246
e 50 235
e 229 237
e 143 197
e 108 176
e 8 238
e 187 240
e 206 253
e 11 243
e 44 191
e 159 178
e 145 243
e 38 117
e 57 130
e 43 195
e 76 143
e 103 246
e 62 245
e 15 133
e 120 186
e 161 187
e 221 238
e 240 251
e 18 138
e 59 176
e 205 230
e 138 240
e 97 202
e 50 127
e 110 141
e 55 205
e 8 130
e 94 133
e 173 197
e 11 135
e 38 238
e 71 186
e 57 251
e 131 200
e 112 187
e 43 87
e 103 138
e 175 243
e 87 130
e 73 195
e 92 245
e 133 246
e 59 68
e 45 133
e 50 248
e 124 197
e 36 84
e 22 149
e 8 251
e 127 202
e 85 205
e 126 206
e 38 130
e 79 131
e 43 208
e 84 246
e 15 146
e 142 187
e 101 149
e 87 251
e 54 74
e 221 251
e 18 151
e 133 138
e 100 190
e 119 203
e 205 243
e 31 90
e 91 141
e 36 205
e 163 246
e 77 206
e 75 133
e 94 146
e 80 211
e 154 197
e 52 149
e 38 251
e 10 152
e 115 205
e 156 206
e 109 131
e 54 195
e 73 208
e 147 157
e 188 195
e 207 208
e 45 146
e 86 147
e 31 211
e 191 200
e 58 85
e 89 152
e 77 98
e 22 162
e 130 190
e 168 216
e 42 77
e 61 90
e 149 203
e 121 141
e 80 103
e 19 93
e 98 157
e 63 136
e 82 149
e 101 162
e 183 201
e 142 200
e 202 214
e 54 87
e 100 203
e 119 216
e 12 90
e 31 103
e 58 206
e 77 219
e 75 146
e 61 211
e 28 34
e 19 214
e 93 163
e 52 162
e 179 203
e 46 88
e 137 206
e 51 166
e 156 219
e 49 93
e 109 144
e 54 208
e 114 222
e 26 109
e 12 211
e 72 225
e 58 98
e 70 152
e 130 203
e 149 216
e 190 217
e 42 90
e 28 155
e 102 104
e 47 168
e 61 103
e 107 219
e 88 206
e 60 107
e 46 209
e 151 225
e 63 149
e 123 163
e 68 227
e 183 214
e 21 152
e 95 101
e 81 166
e 26 230
e 141 217
e 34 91
e 53 104
e 72 117
e 58 219
e 56 109
e 157 161
e 102 225
e 28 47
e 14 112
e 88 98
e 74 163
e 19 227
e 179 216
e 93 176
e 46 101
e 137 219
e 178 220
e 197 233
e 90 107
e 35 171
e 150 158
e 95 222
e 169 171
e 114 235
e 34 212
e 153 163
e 53 225
e 172 176
e 72 238
e 39 61
e 37 217
e 111 166
e 56 230
e 171 217
e 190 230
e 83 104
e 28 168
e 102 117
e 88 219
e 129 220
e 47 181
e 60 120
e 46 222
e 151 238
e 44 112
e 104 163
e 49 227
e 90 228
e 164 177
e 123 176
e 35 63
e 62 166
e 7 230
e 81 179
e 208 220
e 141 230
e 227 233
e 34 104
e 26 243
e 125 222
e 39 182
e 185 236
e 37 109
e 97 123
e 138 161
e 83 225
e 157 174
e 102 238
e 14 125
e 55 126
e 60 241
e 220 230
e 13 166
e 44 233
e 11 56
e 178 233
e 71 107
e 197 246
e 90 120
e 117 223
e 150 171
e 136 236
e 76 185
e 134 163
e 34 225
e 48 123
e 53 238
e 120 228
e 139 241
e 92 166
e 37 230
e 111 179
e 56 243
e 97 244
e 171 230
e 83 117
e 50 169
e 69 182
e 14 246
e 129 233
e 27 185
e 44 125
e 85 126
e 71 228
e 90 241
e 164 190
e 38 51
e 62 179
e 103 180
e 48 244
e 208 233
e 122 193
e 227 246
e 39 195
e 166 236
e 18 72
e 59 110
e 78 123
e 97 136
e 138 174
e 124 239
e 50 61
e 143 252
e 36 126
e 55 139
e 201 230
e 127 244
e 27 77
e 25 233
e 13 179
e 44 246
e 159 233
e 200 234
e 11 69
e 219 247
e 71 120
e 118 195
e 117 236
e 203 239
e 222 252
e 115 126
e 15 188
e 120 241
e 18 193
e 133 180
e 92 179
e 152 193
e 78 244
e 124 131
e 69 195
e 36 247
e 110 196
e 22 83
e 8 185
e 127 136
e 113 238
e 154 239
e 173 252
e 11 190
e 85 139
e 71 241
e 145 190
e 112 242
e 131 255
e 57 77
e 115 247
e 230 234
e 122 206
e 103 193
e 15 80
e 87 185
e 166 249
e 207 250
e 18 85
e 45 188
e 210 255
e 36 139
e 77 140
e 22 204
e 182 193
e 108 244
e 80 145
e 140 196
e 200 247
e 52 83
e 38 185
e 112 134
e 203 252
e 115 139
e 101 204
e 142 242
e 161 255
e 54 129
e 73 142
e 18 206
e 133 193
e 59 244
e 193 207
e 45 80
e 31 145
e 91 196
e 75 188
e 108 136
e 94 201
e 154 252
e 195 253
e 52 204
e 112 255
e 186 204
e 10 207
e 43 155
e 84 193
e 63 70
e 170 196
e 188 250
e 147 212
e 100 137
e 45 201
e 119 150
e 31 37
e 58 140
e 163 193
e 22 217
e 77 153
e 75 80
e 61 145
e 80 158
e 181 210
e 93 97
e 79 199
e 98 212
e 225 253
e 82 204
e 101 217
e 142 255
e 73 155
e 114 156
e 155 194
e 174 207
e 26 43
e 12 145
e 31 158
e 158 199
e 177 212
e 130 137
e 75 201
e 94 214
e 176 253
e 47 102
e 88 140
e 107 153
e 52 217
e 126 166
e 167 204
e 93 218
e 46 143
e 10 220
e 63 83
e 68 161
e 109 199
e 128 212
e 147 225
e 26 164
e 141 151
e 100 150
e 70 207
e 58 153
e 89 220
e 42 145
e 61 158
e 47 223
e 162 210
e 74 97
e 19 161
e 93 110
e 79 212
e 63 204
e 137 153
e 82 217
e 156 166
e 123 218
e 21 207
e 95 156
e 114 169
e 155 207
e 26 56
e 12 158
e 53 159
e 72 172
e 158 212
e 177 225
e 218 226
e 56 164
e 135 228
e 28 102
e 14 167
e 88 153
e 129 154
e 47 115
e 46 156
e 151 172
e 51 234
e 211 223
e 35 226
e 109 212
e 68 174
e 169 226
e 62 100
e 26 177
e 86 228
e 39 116
e 70 220
e 125 156
e 89 233
e 37 43
e 42 158
e 83 159
e 28 223
e 102 172
e 47 236
e 162 223
e 14 59
e 74 110
e 60 175
e 206 229
e 44 167
e 63 217
e 104 218
e 35 118
e 21 220
e 62 221
e 136 170
e 81 234
e 95 169
e 53 172
e 180 213
e 139 175
e 199 226
e 39 237
e 92 100
e 37 164
e 218 239
e 56 177
e 97 178
e 157 229
e 50 103
e 69 116
e 14 180
e 129 167
e 27 119
e 13 221
e 113 159
e 151 185
e 51 247
e 118 237
e 71 162
e 90 175
e 35 239
e 150 226
e 169 239
e 62 113
e 103 114
e 48 178
e 134 218
e 172 244
e 125 169
e 166 170
e 39 129
e 92 221
e 111 234
e 83 172
e 28 236
e 69 237
e 143 186
e 55 73
e 127 178
e 27 240
e 187 229
e 206 242
e 13 113
e 44 180
e 159 167
e 118 129
e 145 232
e 164 245
e 57 119
e 2 183
e 117 170
e 62 234
e 136 183
e 81 247
e 122 248
e 48 70
e 34 172
e 180 226
e 39 250
e 139 188
e 92 113
e 78 178
e 97 191
e 138 229
e 157 242
e 50 116
e 36 181
e 69 129
e 55 194
e 110 130
e 113 172
e 154 173
e 118 250
e 11 124
e 71 175
e 90 188
e 57 240
e 76 253
e 217 229
e 43 76
e 84 114
e 48 191
e 122 140
e 175 232
e 194 245
e 92 234
e 111 247
e 50 237
e 69 250
e 143 199
e 110 251
e 36 73
e 22 138
e 8 240
e 55 86
e 27 253
e 187 242
e 108 178
e 85 194
e 145 245
e 38 119
e 43 197
e 117 183
e 76 145
e 103 248
e 84 235
e 15 135
e 87 240
e 120 188
e 106 253
e 221 240
e 240 253
e 18 140
e 59 178
e 78 191
e 205 232
e 138 242
e 31 79
e 91 130
e 36 194
e 110 143
e 55 207
e 182 248
e 94 135
e 140 251
e 11 137
e 52 138
e 38 240
e 57 253
e 131 202
e 217 242
e 43 89
e 84 127
e 115 194
e 175 245
e 73 197
e 133 248
e 59 70
e 45 135
e 50 250
e 58 74
e 77 87
e 22 151
e 8 253
e 108 191
e 168 205
e 61 79
e 80 92
e 121 130
e 85 207
e 126 208
e 167 246
e 79 133
e 98 146
e 84 248
e 170 251
e 82 138
e 101 151
e 87 253
e 161 202
e 54 76
e 18 153
e 205 245
e 119 205
e 91 143
e 163 248
e 77 208
e 75 135
e 61 200
e 176 187
e 135 149
e 195 200
e 80 213
e 121 251
e 52 151
e 38 253
e 112 202
e 115 207
e 156 208
e 68 95
e 54 197
e 109 133
e 73 210
e 147 159
e 188 197
e 114 211
e 26 98
e 45 148
e 12 200
e 31 213
e 86 149
e 191 202
e 58 87
e 89 154
e 149 205
e 42 79
e 168 218
e 61 92
e 47 157
e 88 195
e 107 208
e 121 143
e 126 221
e 19 95
e 79 146
e 63 138
e 82 151
e 109 254
e 101 164
e 142 202
e 202 216
e 21 141
e 68 216
e 183 203
e 54 89
e 100 205
e 12 92
e 53 93
e 58 208
e 56 98
e 42 200
e 116 149
e 61 213
e 135 162
e 176 200
e 195 213
e 28 36
e 80 226
e 74 152
e 19 216
e 179 205
e 46 90
e 10 167
e 137 208
e 51 168
e 197 222
e 49 95
e 109 146
e 54 210
e 95 211
e 67 149
e 12 213
e 26 111
e 86 162
e 72 227
e 39 50
e 70 154
e 130 205
e 171 206
e 190 219
e 42 92
e 83 93
e 28 157
e 88 208
e 47 170
e 107 221
e 19 108
e 60 109
e 46 211
e 151 227
e 13 34
e 63 151
e 104 152
e 49 216
e 123 165
e 68 229
e 183 216
e 51 60
e 21 154
e 95 103
e 26 232
e 141 219
e 34 93
e 72 119
e 125 211
e 39 171
e 37 98
e 56 111
e 42 213
e 83 214
e 157 163
e 102 227
e 116 162
e 28 49
e 14 114
e 19 229
e 60 230
e 93 178
e 46 103
e 13 155
e 137 221
e 178 222
e 51 181
e 197 235
e 49 108
e 90 109
e 35 173
e 34 214
e 153 165
e 53 227
e 213 216
e 139 230
e 70 167
e 111 168
e 56 232
e 171 219
e 190 232
e 28 170
e 69 171
e 14 235
e 129 222
e 60 122
e 146 162
e 132 227
e 113 214
e 13 47
e 151 240
e 44 114
e 49 229
e 90 230
e 123 178
e 62 168
e 81 181
e 208 222
e 26 245
e 227 235
e 122 182
e 166 225
e 185 238
e 37 111
e 78 112
e 97 125
e 83 227
e 157 176
e 102 240
e 143 241
e 14 127
e 201 219
e 60 243
e 220 232
e 44 235
e 11 58
e 178 235
e 71 109
e 219 236
e 2 238
e 35 186
e 76 187
e 136 238
e 222 241
e 48 125
e 34 227
e 120 230
e 139 243
e 92 168
e 37 232
e 111 181
e 152 182
e 97 246
e 212 233
e 50 171
e 196 225
e 14 248
e 108 112
e 8 174
e 113 227
e 173 241
e 44 127
e 71 230
e 145 179
e 90 243
e 38 53
e 43 131
e 62 181
e 122 195
e 208 235
e 15 69
e 166 238
e 18 74
e 59 112
e 78 125
e 97 138
e 138 176
e 124 241
e 50 63
e 36 128
e 55 141
e 108 233
e 127 246
e 44 248
e 159 235
e 118 197
e 11 71
e 200 236
e 71 122
e 112 123
e 57 187
e 131 136
e 117 238
e 203 241
e 38 174
e 15 190
e 175 179
e 120 243
e 161 244
e 73 131
e 59 233
e 133 182
e 152 195
e 45 69
e 212 246
e 91 185
e 196 238
e 8 187
e 94 190
e 27 200
e 154 241
e 127 138
e 214 255
e 85 141
e 126 142
e 71 243
e 186 193
e 84 182
e 103 195
e 230 236
e 15 82
e 87 187
e 188 239
e 147 201
e 207 252
e 18 87
e 100 126
e 45 190
e 59 125
e 119 139
e 191 244
e 36 141
e 163 182
e 22 206
e 182 195
e 77 142
e 108 246
e 80 147
e 52 85
e 38 187
e 112 136
e 57 200
e 98 201
e 244 255
e 115 141
e 15 203
e 142 244
e 101 206
e 54 131
e 18 208
e 133 195
e 59 246
e 12 134
e 45 82
e 31 147
e 177 201
e 22 98
e 75 190
e 94 203
e 195 255
e 107 142
e 52 206
e 167 193
e 126 155
e 186 206
e 79 80
e 65 145
e 84 195
e 63 72
e 68 150
e 87 200
e 54 252
e 147 214
e 100 139
e 45 203
e 86 204
e 119 152
e 12 26
e 31 39
e 58 142
e 163 195
e 22 219
e 77 155
e 130 247
e 42 134
e 61 147
e 140 211
e 181 212
e 74 86
e 19 150
e 79 201
e 98 214
e 51 102
e 82 206
e 101 219
e 95 145
e 114 158
e 155 196
e 193 222
e 12 147
e 26 45
e 72 161
e 158 201
e 177 214
e 89 101
e 149 152
e 135 217
e 176 255
e 28 91
e 47 104
e 88 142
e 107 155
e 52 219
e 93 220
e 19 42
e 46 145
e 10 222
e 151 161
e 51 223
e 170 211
e 49 150
e 109 201
e 21 88
e 81 102
e 26 166
e 141 153
e 86 217
e 172 220
e 125 145
e 58 155
e 89 222
e 42 147
e 61 160
e 102 161
e 47 225
e 28 212
e 162 212
e 14 48
e 181 225
e 19 163
e 60 164
e 79 214
e 93 112
e 146 204
e 63 206
e 137 155
e 82 219
e 123 220
e 35 107
e 95 158
e 81 223
e 114 171
e 72 174
e 158 214
e 218 228
e 70 101
e 37 153
e 56 166
e 116 217
e 135 230
e 28 104
e 14 169
e 47 117
e 74 220
e 148 169
e 93 233
e 88 155
e 46 158
e 132 161
e 151 174
e 51 236
e 44 48
e 211 225
e 49 163
e 90 164
e 35 228
e 109 214
e 169 228
e 62 102
e 81 115
e 26 179
e 141 166
e 153 220
e 172 233
e 125 158
e 70 222
e 39 118
e 111 223
e 83 161
e 28 225
e 102 174
e 47 238
e 14 61
e 60 177
e 146 217
e 13 102
e 44 169
e 104 220
e 123 233
e 164 234
e 35 120
e 21 222
e 62 223
e 136 172
e 76 121
e 117 159
e 48 59
e 34 161
e 120 164
e 53 174
e 139 177
e 39 239
e 199 228
e 218 241
e 37 166
e 111 115
e 56 179
e 97 180
e 138 218
e 157 231
e 92 102
e 69 118
e 74 233
e 27 121
e 113 161
e 13 223
e 173 175
e 118 239
e 71 164
e 90 177
e 35 241
e 76 242
e 150 228
e 62 115
e 103 116
e 134 220
e 122 129
e 153 233
e 39 131
e 166 172
e 92 223
e 111 236
e 50 226
e 124 175
e 69 239
e 143 188
e 83 174
e 36 62
e 55 75
e 127 180
e 27 242
e 187 231
e 206 244
e 44 182
e 118 131
e 30 247
e 104 233
e 145 234
e 164 247
e 159 169
e 85 183
e 2 185
e 76 134
e 117 172
e 136 185
e 103 237
e 62 236
e 48 72
e 15 124
e 120 177
e 180 228
e 221 229
e 139 190
e 240 242
e 18 129
e 59 167
e 78 180
e 92 115
e 39 252
e 36 183
e 55 196
e 27 134
e 13 236
e 154 175
e 113 174
e 118 252
e 11 126
e 71 177
e 112 178
e 57 242
e 131 191
e 76 255
e 43 78
e 29 180
e 103 129
e 15 245
e 48 193
e 175 234
e 194 247
e 134 233
e 87 121
e 115 183
e 18 250
e 166 185
e 133 237
e 152 250
e 92 236
e 45 124
e 50 239
e 69 252
e 110 253
e 36 75
e 22 140
e 8 242
e 108 180
e 27 255
e 127 193
e 187 244
e 11 247
e 85 196
e 145 247
e 38 121
e 57 134
e 98 135
e 43 199
e 84 237
e 103 250
e 15 137
e 142 178
e 101 140
e 221 242
e 240 255
e 18 142
e 59 180
e 78 193
e 119 194
e 205 234
e 45 245
e 31 81
e 110 145
e 163 237
e 182 250
e 75 124
e 8 134
e 154 188
e 140 253
e 38 242
e 112 191
e 131 204
e 10 143
e 43 91
e 84 129
e 115 196
e 175 247
e 54 186
e 73 199
e 133 250
e 45 137
e 31 202
e 91 253
e 58 76
e 22 153
e 8 255
e 149 194
e 75 245
e 168 207
e 108 193
e 61 81
e 80 94
e 107 197
e 126 210
e 167 248
e 19 84
e 79 135
e 43 212
e 170 253
e 84 250
e 82 140
e 142 191
e 101 153
e 87 255
e 161 204
e 54 78
e 73 91
e 100 194
e 205 247
e 246 248
e 12 81
e 58 197
e 163 250
e 77 210
e 75 137
e 61 202
e 94 150
e 52 153
e 38 255
e 179 194
e 93 154
e 46 79
e 10 156
e 137 197
e 156 210
e 49 84
e 109 135
e 54 199
e 68 97
e 73 212
e 188 199
e 147 161
e 114 213
e 26 100
e 86 151
e 191 204
e 70 143
e 89 156
e 149 207
e 190 208
e 42 81
e 88 197
e 47 159
e 107 210
e 126 223
e 19 97
e 46 200
e 63 140
e 82 153
e 123 154
e 68 218
e 183 205
e 21 143
e 26 221
e 141 208
e 100 207
e 12 94
e 72 108
e 58 210
e 56 100
e 116 151
e 135 164
e 80 228
e 28 38
e 176 202
e 47 51
e 74 154
e 19 218
e 93 167
e 179 207
e 46 92
e 137 210
e 51 170
e 49 97
e 35 162
e 68 110
e 95 213
e 21 35
e 67 151
e 26 113
e 53 216
e 86 164
e 72 229
e 39 52
e 70 156
e 89 169
e 56 221
e 130 207
e 171 208
e 42 94
e 83 95
e 28 159
e 47 172
e 129 211
e 88 210
e 60 111
e 46 213
e 151 229
e 44 103
e 63 153
e 104 154
e 49 218
e 123 167
e 183 218
e 35 54
e 21 156
e 62 157
e 81 170
e 26 234
e 141 221
e 34 95
e 53 108
e 125 213
e 39 173
e 185 227
e 56 113
e 97 114
e 83 216
e 102 229
e 14 116
e 74 167
e 60 232
e 27 55
e 118 173
e 159 211
e 71 98
e 90 111
e 35 175
e 150 162
e 136 227
e 134 154
e 34 216
e 153 167
e 53 229
e 172 180
e 213 218
e 72 242
e 92 157
e 37 221
e 111 170
e 56 234
e 171 221
e 212 222
e 83 108
e 28 172
e 69 173
e 14 237
e 113 216
e 27 176
e 13 49
e 151 242
e 44 116
e 104 167
e 145 168
e 90 232
e 81 183
e 48 235
e 227 237
e 34 108
e 125 226
e 166 227
e 39 186
e 185 240
e 37 113
e 78 114
e 83 229
e 157 178
e 143 243
e 36 117
e 55 130
e 60 245
e 27 68
e 13 170
e 44 237
e 118 186
e 11 60
e 219 238
e 178 237
e 57 176
e 2 240
e 90 124
e 117 227
e 136 240
e 222 243
e 48 127
e 34 229
e 139 245
e 92 170
e 37 234
e 111 183
e 97 248
e 212 235
e 50 173
e 69 186
e 196 227
e 110 187
e 14 250
e 55 251
e 22 74
e 154 230
e 173 243
e 11 181
e 71 232
e 145 181
e 90 245
e 164 194
e 131 246
e 57 68
e 43 133
e 84 171
e 48 248
e 122 197
e 208 237
e 15 71
e 166 240
e 207 241
e 18 76
e 59 114
e 124 243
e 210 246
e 36 130
e 22 195
e 108 235
e 127 248
e 44 250
e 140 187
e 200 238
e 85 251
e 52 74
e 38 176
e 112 125
e 2 253
e 76 202
e 203 243
e 117 240
e 115 130
e 175 181
e 120 245
e 161 246
e 73 133
e 59 235
e 78 248
e 152 197
e 31 136
e 50 186
e 36 251
e 196 240
e 237 241
e 110 200
e 108 127
e 11 194
e 52 195
e 85 143
e 112 246
e 186 195
e 38 68
e 43 146
e 103 197
e 230 238
e 115 251
e 147 203
e 188 241
e 18 89
e 100 128
e 59 127
e 119 141
e 191 246
e 58 131
e 182 197
e 61 136
e 80 149
e 121 187
e 140 200
e 200 251
e 112 138
e 79 190
e 98 203
e 82 195
e 15 205
e 115 143
e 101 208
e 142 246
e 54 133
e 73 146
e 114 147
e 59 248
e 26 34
e 193 211
e 31 149
e 91 200
e 177 203
e 94 205
e 135 206
e 176 244
e 88 131
e 47 93
e 52 208
e 126 157
e 167 195
e 19 31
e 65 147
e 10 211
e 170 200
e 63 74
e 109 190
e 68 152
e 147 216
e 21 77
e 100 141
e 86 206
e 77 157
e 89 211
e 42 136
e 61 149
e 47 214
e 121 200
e 162 201
e 80 162
e 74 88
e 19 152
e 93 101
e 98 216
e 63 195
e 51 104
e 82 208
e 54 146
e 95 147
e 174 211
e 26 47
e 12 149
e 86 98
e 53 150
e 72 163
e 158 203
e 177 216
e 70 90
e 130 141
e 75 205
e 116 206
e 89 103
e 135 219
e 107 157
e 93 222
e 19 44
e 151 163
e 51 225
e 63 87
e 49 152
e 109 203
e 169 217
e 21 90
e 81 104
e 26 168
e 141 155
e 86 219
e 172 222
e 125 147
e 70 211
e 39 107
e 89 224
e 204 211
e 42 149
e 83 150
e 28 214
e 102 163
e 47 227
e 162 214
e 14 50
e 181 227
e 74 101
e 60 166
e 146 206
e 93 114
e 13 91
e 63 208
e 137 157
e 123 222
e 35 109
e 81 225
e 155 211
e 34 150
e 53 163
e 139 166
e 72 176
e 39 228
e 158 216
e 218 230
e 37 155
e 116 219
e 69 107
e 129 158
e 93 235
e 13 212
e 32 225
e 151 176
e 51 238
e 211 227
e 90 166
e 35 230
e 150 217
e 169 230
e 62 104
e 81 117
e 153 222
e 172 235
e 39 120
e 111 225
e 83 163
e 28 227
e 69 228
e 102 176
e 143 177
e 14 63
e 146 219
e 187 220
e 60 179
e 206 233
e 13 104
e 44 171
e 118 120
e 104 222
e 164 236
e 2 174
e 35 122
e 62 225
e 76 123
e 81 238
e 122 239
e 117 161
e 48 61
e 34 163
e 120 166
e 136 174
e 139 179
e 39 241
e 199 230
e 180 217
e 92 104
e 37 168
e 111 117
e 138 220
e 157 233
e 50 107
e 69 120
e 129 171
e 55 185
e 113 163
e 13 225
e 99 228
e 173 177
e 118 241
e 11 115
e 44 63
e 71 166
e 90 179
e 131 180
e 35 243
e 150 230
e 29 169
e 48 182
e 134 222
e 153 235
e 194 236
e 166 174
e 111 238
e 185 187
e 152 239
e 50 228
e 124 177
e 69 241
e 143 190
e 108 169
e 55 77
e 127 182
e 27 244
e 187 233
e 206 246
e 118 133
e 159 171
e 145 236
e 85 185
e 38 110
e 2 187
e 76 136
e 62 238
e 103 239
e 117 174
e 122 252
e 15 126
e 120 179
e 161 180
e 180 230
e 18 131
e 59 169
e 78 182
e 97 195
e 50 120
e 91 121
e 36 185
e 110 134
e 182 239
e 27 136
e 154 177
e 173 190
e 38 231
e 112 180
e 57 244
e 217 233
e 71 179
e 236 246
e 43 80
e 84 118
e 103 131
e 15 247
e 115 185
e 87 123
e 92 238
e 18 252
e 152 252
e 45 126
e 105 177
e 50 241
e 91 242
e 124 190
e 110 255
e 22 142
e 8 244
e 94 247
e 127 195
e 108 182
e 228 247
e 168 196
e 85 198
e 38 123
e 24 188
e 98 137
e 57 136
e 43 201
e 84 239
e 103 252
e 142 180
e 87 244
e 101 142
e 59 182
e 100 183
e 45 247
e 119 196
e 12 70
e 31 83
e 91 134
e 110 147
e 77 199
e 182 252
e 163 239
e 75 126
e 94 139
e 154 190
e 121 242
e 140 255
e 80 204
e 52 142
e 38 244
e 112 193
e 10 145
e 156 199
e 216 250
e 68 86
e 54 188
e 87 136
e 133 252
e 174 253
e 45 139
e 86 140
e 31 204
e 191 193
e 91 255
e 89 145
e 75 247
e 149 196
e 22 155
e 42 70
e 77 91
e 61 83
e 130 183
e 121 134
e 107 199
e 140 147
e 167 250
e 126 212
e 19 86
e 98 150
e 43 214
e 170 255
e 84 252
e 63 129
e 82 142
e 142 193
e 183 194
e 54 80
e 40 145
e 246 250
e 12 83
e 58 199
e 163 252
e 204 253
e 77 212
e 116 140
e 61 204
e 176 191
e 80 217
e 195 204
e 121 255
e 19 207
e 179 196
e 93 156
e 52 155
e 46 81
e 63 250
e 51 159
e 137 199
e 156 212
e 49 86
e 109 137
e 54 201
e 155 253
e 26 102
e 86 153
e 72 218
e 58 91
e 130 196
e 89 158
e 190 210
e 42 83
e 47 161
e 88 199
e 107 212
e 60 100
e 5 164
e 79 150
e 46 202
e 63 142
e 82 155
e 68 220
e 183 207
e 202 220
e 81 159
e 26 223
e 141 210
e 34 84
e 53 97
e 125 202
e 72 110
e 58 212
e 37 89
e 56 102
e 42 204
e 116 153
e 61 217
e 176 204
e 102 218
e 74 156
e 19 220
e 93 169
e 46 94
e 137 212
e 51 172
e 178 213
e 197 226
e 90 100
e 35 164
e 114 228
e 12 217
e 53 218
e 70 158
e 111 159
e 171 210
e 190 223
e 83 97
e 14 226
e 129 213
e 88 212
e 47 174
e 146 153
e 60 113
e 13 38
e 104 156
e 49 220
e 123 169
e 164 170
e 68 233
e 35 56
e 21 158
e 62 159
e 81 172
e 26 236
e 141 223
e 53 110
e 39 175
e 185 229
e 56 115
e 97 116
e 83 218
e 157 167
e 14 118
e 74 169
e 201 210
e 60 234
e 27 57
e 13 159
e 44 226
e 159 213
e 118 175
e 178 226
e 71 100
e 197 239
e 90 113
e 35 177
e 150 164
e 117 216
e 136 229
e 134 156
e 34 218
e 153 169
e 48 116
e 139 234
e 92 159
e 37 223
e 111 172
e 56 236
e 97 237
e 171 223
e 83 110
e 69 175
e 14 239
e 27 178
e 113 218
e 44 118
e 85 119
e 104 169
e 71 221
e 145 170
e 164 183
e 90 234
e 62 172
e 103 173
e 48 237
e 208 226
e 15 60
e 227 239
e 39 188
e 185 242
e 59 103
e 138 167
e 157 180
e 143 245
e 36 119
e 201 223
e 127 237
e 8 57
e 60 247
e 27 70
e 13 172
e 44 239
e 159 226
e 200 227
e 11 62
e 219 240
e 71 113
e 118 188
e 57 178
e 2 242
e 76 191
e 203 232
e 136 242
e 222 245
e 48 129
e 15 181
e 120 234
e 139 247
e 18 186
e 92 172
e 37 236
e 152 186
e 97 250
e 212 237
e 78 237
e 50 175
e 36 240
e 55 253
e 22 76
e 8 178
e 27 191
e 154 232
e 173 245
e 11 183
e 71 234
e 145 183
e 90 247
e 38 57
e 131 248
e 57 70
e 43 135
e 103 186
e 48 250
e 15 73
e 87 178
e 166 242
e 207 243
e 18 78
e 59 116
e 45 181
e 119 130
e 78 129
e 124 245
e 210 248
e 163 173
e 22 197
e 182 186
e 127 250
e 108 237
e 77 133
e 85 253
e 200 240
e 52 76
e 219 253
e 112 127
e 57 191
e 2 255
e 131 140
e 203 245
e 115 132
e 15 194
e 101 197
e 161 248
e 54 122
e 73 135
e 18 199
e 133 186
e 78 250
e 119 251
e 152 199
e 45 73
e 59 237
e 31 138
e 91 189
e 36 253
e 196 242
e 110 202
e 22 89
e 8 191
e 108 129
e 94 194
e 154 245
e 11 196
e 107 133
e 126 146
e 112 248
e 52 197
e 186 197
e 10 200
e 84 186
e 115 253
e 230 240
e 87 191
e 147 205
e 188 243
e 100 130
e 45 194
e 119 143
e 191 248
e 58 133
e 77 146
e 108 250
e 149 251
e 22 210
e 182 199
e 61 138
e 80 151
e 140 202
e 181 203
e 52 89
e 38 191
e 98 205
e 82 197
e 101 210
e 142 248
e 54 135
e 59 250
e 100 251
e 174 200
e 26 36
e 12 138
e 31 151
e 91 202
e 177 205
e 75 194
e 94 207
e 135 208
e 176 246
e 88 133
e 47 95
e 52 210
e 167 197
e 179 251
e 126 159
e 93 211
e 79 84
e 46 136
e 10 213
e 63 76
e 82 89
e 49 141
e 68 154
e 147 218
e 21 79
e 26 157
e 100 143
e 86 208
e 70 200
e 58 146
e 130 251
e 89 213
e 61 151
e 47 216
e 121 202
e 181 216
e 19 154
e 93 103
e 79 205
e 63 197
e 137 146
e 123 211
e 21 200
e 95 149
e 114 162
e 155 200
e 174 213
e 26 49
e 12 151
e 53 152
e 158 205
e 177 218
e 70 92
e 130 143
e 116 208
e 135 221
e 88 146
e 129 147
e 74 211
e 46 149
e 51 227
e 211 216
e 49 154
e 68 167
e 35 219
e 150 206
e 169 219
e 21 92
e 26 170
e 141 157
e 153 211
e 86 221
e 39 109
e 70 213
e 125 149
e 89 226
e 83 152
e 28 216
e 102 165
e 47 229
e 162 216
e 14 52
e 74 103
e 13 93
e 63 210
e 104 211
e 51 119
e 35 111
e 62 214
e 95 162
e 136 163
e 81 227
e 34 152
e 180 206
e 39 230
e 139 168
e 199 219
e 218 232
e 56 170
e 116 221
e 28 108
e 14 173
e 113 152
e 27 112
e 13 214
e 151 178
e 51 240
e 71 155
e 90 168
e 35 232
e 150 219
e 134 211
e 81 119
e 153 224
e 48 171
e 34 44
e 125 162
e 92 214
e 111 227
e 39 122
e 124 166
e 69 230
e 143 179
e 127 171
e 60 181
e 27 233
e 187 222
e 146 221
e 206 235
e 44 173
e 118 122
e 145 225
e 164 238
e 57 112
e 2 176
e 76 125
e 62 227
e 136 176
e 81 240
e 117 163
e 122 241
e 48 63
e 120 168
e 180 219
e 39 243
e 199 232
e 139 181
e 37 170
e 78 171
e 138 222
e 157 235
e 50 109
e 69 122
e 110 123
e 14 186
e 55 187
e 27 125
e 13 227
e 154 166
e 118 243
e 11 117
e 71 168
e 57 233
e 90 181
e 76 246
e 131 182
e 2 68
e 84 107
e 43 69
e 103 120
e 122 133
e 175 225
e 194 238
e 87 112
e 92 227
e 166 176
e 111 240
e 50 230
e 124 179
e 69 243
e 229 232
e 110 244
e 22 131
e 8 233
e 55 79
e 27 246
e 187 235
e 228 236
e 108 171
e 11 238
e 85 187
e 145 238
e 164 251
e 38 112
e 57 125
e 43 190
e 84 228
e 117 176
e 103 241
e 87 233
e 120 181
e 221 233
e 18 133
e 205 225
e 138 235
e 243 251
e 31 72
e 50 122
e 36 187
e 110 136
e 55 200
e 182 241
e 140 244
e 11 130
e 52 131
e 38 233
e 57 246
e 131 195
e 217 235
e 43 82
e 84 120
e 103 133
e 115 187
e 194 251
e 87 125
e 73 190
e 133 241
e 193 255
e 50 243
e 91 244
e 108 184
e 149 185
e 61 72
e 11 251
e 85 200
e 167 239
e 126 201
e 186 252
e 38 125
e 79 126
e 98 139
e 170 244
e 15 141
e 142 182
e 87 246
e 161 195
e 221 246
e 54 69
e 73 82
e 100 185
e 205 238
e 12 72
e 31 85
e 91 136
e 36 200
e 163 241
e 94 141
e 121 244
e 80 206
e 179 185
e 38 246
e 112 195
e 10 147
e 115 200
e 156 201
e 82 252
e 216 252
e 109 126
e 68 88
e 54 190
e 73 203
e 188 190
e 147 152
e 174 255
e 12 193
e 86 142
e 191 195
e 89 147
e 130 185
e 149 198
e 42 72
e 168 211
e 61 85
e 47 150
e 80 98
e 121 136
e 107 201
e 167 252
e 253 255
e 19 88
e 126 214
e 79 139
e 98 152
e 63 131
e 109 247
e 101 157
e 142 195
e 183 196
e 21 134
e 54 82
e 141 199
e 246 252
e 12 85
e 58 201
e 163 254
e 77 214
e 204 255
e 42 193
e 116 142
e 61 206
e 176 193
e 135 155
e 195 206
e 80 219
e 74 145
e 93 158
e 46 83
e 63 252
e 51 161
e 156 214
e 109 139
e 21 255
e 95 204
e 54 203
e 21 26
e 155 255
e 114 217
e 26 104
e 12 206
e 86 155
e 31 219
e 39 43
e 70 147
e 171 199
e 190 212
e 42 85
e 28 150
e 88 201
e 47 163
e 234 255
e 19 101
e 60 102
e 5 166
e 46 204
e 13 27
e 151 220
e 123 158
e 68 222
e 35 45
e 21 147
e 81 161
e 26 225
e 141 212
e 34 86
e 72 112
e 125 204
e 39 164
e 37 91
e 56 104
e 42 206
e 116 155
e 61 219
e 102 220
e 28 42
e 14 107
e 74 158
e 19 222
e 93 171
e 60 223
e 32 161
e 137 214
e 51 174
e 16 153
e 49 101
e 35 166
e 150 153
e 90 102
e 95 217
e 34 207
e 53 220
e 72 233
e 39 56
e 37 212
e 111 161
e 56 225
e 171 212
e 190 225
e 28 163
e 69 164
e 102 112
e 14 228
e 60 115
e 46 217
e 151 233
e 44 107
e 104 158
e 49 222
e 90 223
e 164 172
e 123 171
e 62 161
e 7 225
e 81 174
e 26 238
e 122 175
e 227 228
e 125 217
e 39 177
e 37 104
e 138 156
e 83 220
e 157 169
e 102 233
e 143 234
e 14 120
e 55 121
e 60 236
e 220 225
e 13 161
e 44 228
e 118 177
e 11 51
e 178 228
e 150 166
e 76 180
e 117 218
e 48 118
e 153 171
e 53 233
e 139 236
e 120 223
e 92 161
e 37 225
e 111 174
e 56 238
e 97 239
e 212 226
e 152 175
e 50 164
e 69 177
e 14 241
e 129 228
e 55 242
e 8 167
e 27 180
e 113 220
e 173 234
e 11 172
e 85 121
e 71 223
e 145 172
e 44 120
e 90 236
e 103 175
e 48 239
e 208 228
e 15 62
e 106 180
e 185 244
e 78 118
e 138 169
e 97 131
e 124 234
e 83 233
e 143 247
e 36 121
e 55 134
e 27 72
e 44 241
e 118 190
e 159 228
e 200 229
e 85 242
e 38 167
e 71 115
e 57 180
e 2 244
e 76 193
e 136 244
e 222 247
e 73 124
e 18 188
e 133 175
e 59 226
e 152 188
e 97 252
e 45 62
e 212 239
e 92 174
e 50 177
e 91 178
e 36 242
e 78 239
e 55 255
e 22 78
e 8 180
e 94 183
e 27 193
e 154 234
e 108 118
e 173 247
e 127 131
e 11 185
e 85 134
e 71 236
e 145 185
e 112 237
e 131 250
e 57 72
e 43 137
e 84 175
e 103 188
e 48 252
e 115 242
e 15 75
e 87 180
e 147 194
e 188 232
e 207 245
e 59 118
e 100 119
e 45 183
e 124 247
e 36 134
e 163 175
e 108 239
e 182 188
e 127 252
e 168 253
e 77 135
e 80 140
e 121 178
e 140 191
e 85 255
e 200 242
e 52 78
e 38 180
e 112 129
e 57 193
e 203 247
e 115 134
e 15 196
e 101 199
e 175 185
e 161 250
e 54 124
e 18 201
e 133 188
e 78 252
e 119 253
e 193 202
e 45 75
e 59 239
e 31 140
e 91 191
e 36 255
e 177 194
e 110 204
e 75 183
e 22 91
e 94 196
e 154 247
e 195 248
e 107 135
e 52 199
e 112 250
e 186 199
e 84 188
e 170 191
e 115 255
e 87 193
e 54 245
e 188 245
e 147 207
e 45 196
e 86 197
e 119 145
e 12 19
e 191 250
e 163 188
e 22 212
e 149 253
e 89 202
e 42 127
e 61 140
e 80 153
e 181 205
e 19 143
e 52 91
e 79 194
e 98 207
e 225 248
e 63 186
e 51 95
e 82 199
e 142 250
e 101 212
e 54 137
e 95 138
e 114 151
e 100 253
e 174 202
e 26 38
e 86 89
e 31 153
e 72 154
e 158 194
e 177 207
e 75 196
e 116 197
e 135 210
e 176 248
e 28 84
e 47 97
e 33 199
e 88 135
e 179 253
e 93 213
e 19 35
e 46 138
e 170 204
e 51 216
e 63 78
e 49 143
e 68 156
e 109 194
e 169 208
e 21 81
e 81 95
e 26 159
e 141 146
e 86 210
e 172 213
e 125 138
e 70 202
e 130 253
e 42 140
e 61 153
e 102 154
e 47 218
e 162 205
e 181 218
e 74 92
e 19 156
e 146 197
e 63 199
e 51 108
e 82 212
e 123 213
e 35 100
e 21 202
e 95 151
e 114 164
e 81 216
e 155 202
e 34 141
e 53 154
e 72 167
e 158 207
e 56 159
e 116 210
e 135 223
e 28 97
e 14 162
e 74 213
e 93 226
e 46 151
e 151 167
e 51 229
e 49 156
e 68 169
e 150 208
e 109 207
e 169 221
e 21 94
e 62 95
e 81 108
e 26 172
e 141 159
e 153 213
e 172 226
e 39 111
e 125 151
e 111 216
e 83 154
e 102 167
e 162 218
e 14 54
e 41 157
e 60 170
e 13 95
e 44 162
e 123 226
e 164 227
e 35 113
e 117 152
e 62 216
e 76 114
e 81 229
e 120 157
e 53 167
e 180 208
e 39 232
e 199 221
e 218 234
e 37 159
e 97 173
e 138 211
e 50 98
e 69 111
e 14 175
e 129 162
e 74 226
e 113 154
e 13 216
e 118 232
e 44 54
e 71 157
e 90 170
e 35 234
e 150 221
e 62 108
e 48 173
e 134 213
e 153 226
e 39 124
e 111 229
e 50 219
e 124 168
e 69 232
e 143 181
e 83 167
e 36 55
e 55 68
e 127 173
e 27 235
e 60 183
e 206 237
e 13 108
e 44 175
e 159 162
e 30 240
e 104 226
e 145 227
e 164 240
e 57 114
e 2 178
e 76 127
e 62 229
e 103 230
e 136 178
e 122 243
e 15 117
e 120 170
e 139 183
e 39 245
e 18 122
e 92 108
e 78 173
e 97 186
e 157 237
e 50 111
e 69 124
e 110 125
e 96 227
e 27 127
e 13 229
e 154 168
e 113 167
e 118 245
e 11 119
e 71 170
e 57 235
e 76 248
e 43 71
e 84 109
e 134 226
e 122 135
e 48 186
e 194 240
e 175 227
e 87 114
e 92 229
e 152 243
e 45 117
e 50 232
e 124 181
e 69 245
e 110 246
e 22 133
e 8 235
e 108 173
e 27 248
e 187 237
e 228 238
e 127 186
e 11 240
e 30 253
e 145 240
e 186 241
e 38 114
e 57 127
e 84 230
e 15 130
e 142 171
e 87 235
e 54 58
e 221 235
e 240 248
e 18 135
e 59 173
e 45 238
e 119 187
e 78 186
e 205 227
e 243 253
e 31 74
e 91 125
e 163 230
e 55 202
e 110 138
e 182 243
e 75 117
e 94 130
e 154 181
e 140 246
e 52 133
e 38 235
e 57 248
e 131 197
e 217 237
e 10 136
e 43 84
e 84 122
e 15 251
e 175 240
e 133 243
e 45 130
e 31 195
e 91 246
e 77 82
e 108 186
e 8 248
e 149 187
e 209 238
e 61 74
e 228 251
e 11 253
e 85 202
e 126 203
e 167 241
e 19 77
e 38 127
e 98 141
e 43 205
e 84 243
e 170 246
e 82 133
e 101 146
e 87 248
e 161 197
e 54 71
e 100 187
e 45 251
e 119 200
e 205 240
e 12 74
e 31 87
e 163 243
e 77 203
e 75 130
e 80 208
e 121 246
e 33 133
e 52 146
e 179 187
e 38 248
e 93 147
e 46 72
e 10 149
e 156 203
e 49 77
e 114 206
e 155 244
e 26 93
e 12 195
e 31 208
e 191 197
e 58 82
e 70 136
e 89 149
e 75 251
e 130 187
e 149 200
e 121 138
e 88 190
e 47 152
e 126 216
e 19 90
e 79 141
e 63 133
e 123 147
e 68 211
e 21 136
e 26 214
e 141 201
e 100 200
e 12 87
e 53 88
e 72 101
e 58 203
e 77 216
e 56 93
e 42 195
e 61 208
e 135 157
e 176 195
e 80 221
e 74 147
e 93 160
e 179 200
e 46 85
e 156 216
e 197 217
e 49 90
e 68 103
e 54 205
e 95 206
e 114 219
e 12 208
e 86 157
e 72 222
e 70 149
e 56 214
e 171 201
e 130 200
e 190 214
e 42 87
e 83 88
e 89 162
e 88 203
e 107 216
e 60 104
e 151 222
e 63 146
e 104 147
e 49 211
e 183 211
e 35 47
e 95 98
e 62 150
e 81 163
e 141 214
e 34 88
e 53 101
e 39 166
e 125 206
e 37 93
e 42 208
e 116 157
e 28 44
e 60 225
e 27 48
e 13 150
e 118 166
e 51 176
e 178 217
e 197 230
e 71 91
e 90 104
e 35 168
e 150 155
e 136 220
e 48 107
e 134 147
e 53 222
e 72 235
e 92 150
e 37 214
e 111 163
e 56 227
e 171 214
e 83 101
e 69 166
e 14 230
e 129 217
e 27 169
e 60 117
e 146 157
e 46 219
e 13 42
e 151 235
e 145 161
e 90 225
e 164 174
e 62 163
e 7 227
e 81 176
e 48 228
e 122 177
e 34 101
e 125 219
e 166 220
e 185 233
e 78 107
e 83 222
e 157 171
e 102 235
e 55 123
e 201 214
e 60 238
e 8 48
e 27 61
e 13 163
e 99 166
e 44 230
e 159 217
e 118 179
e 11 53
e 178 230
e 71 104
e 90 117
e 2 233
e 76 182
e 117 220
e 136 233
e 222 236
e 48 120
e 34 222
e 120 225
e 139 238
e 92 163
e 111 176
e 78 228
e 212 228
e 69 179
e 14 243
e 55 244
e 215 233
e 110 180
e 8 169
e 113 222
e 27 182
e 85 123
e 71 225
e 145 174
e 90 238
e 164 187
e 38 48
e 131 239
e 43 126
e 84 164
e 103 177
e 48 241
e 208 230
e 122 190
e 166 233
e 18 69
e 59 107
e 78 120
e 119 121
e 185 246
e 36 123
e 108 228
e 55 136
e 127 241
e 25 230
e 140 180
e 85 244
e 44 243
e 219 244
e 38 169
e 57 182
e 2 246
e 43 247
e 76 195
e 203 236
e 117 233
e 15 185
e 120 238
e 161 239
e 73 126
e 18 190
e 133 177
e 78 241
e 152 190
e 59 228
e 50 179
e 91 180
e 36 244
e 196 233
e 110 193
e 22 80
e 8 182
e 154 236
e 214 250
e 11 187
e 52 188
e 167 175
e 126 137
e 71 238
e 38 61
e 131 252
e 85 136
e 112 239
e 84 177
e 115 244
e 103 190
e 87 182
e 73 247
e 147 196
e 188 234
e 207 247
e 45 185
e 119 134
e 191 239
e 210 252
e 163 177
e 22 201
e 182 190
e 108 241
e 168 255
e 77 137
e 80 142
e 121 180
e 140 193
e 200 244
e 52 80
e 112 131
e 79 183
e 98 196
e 244 250
e 82 188
e 115 136
e 142 239
e 101 201
e 161 252
e 54 126
e 73 139
e 18 203
e 59 241
e 133 190
e 119 255
e 193 204
e 12 129
e 100 242
e 31 142
e 91 193
e 177 196
e 237 247
e 75 185
e 195 250
e 88 124
e 47 86
e 107 137
e 52 201
e 167 188
e 126 150
e 186 201
e 112 252
e 170 193
e 230 244
e 68 145
e 54 247
e 109 183
e 188 247
e 21 70
e 100 134
e 12 250
e 86 199
e 58 137
e 163 190
e 89 204
e 130 242
e 77 150
e 42 129
e 61 142
e 80 155
e 181 207
e 74 81
e 19 145
e 79 196
e 225 250
e 63 188
e 51 97
e 82 201
e 101 214
e 183 253
e 142 252
e 21 191
e 95 140
e 114 153
e 100 255
e 174 204
e 155 191
e 12 142
e 86 91
e 72 156
e 158 196
e 70 83
e 42 250
e 116 199
e 135 212
e 176 250
e 28 86
e 107 150
e 179 255
e 19 37
e 46 140
e 10 217
e 151 156
e 51 218
e 63 80
e 68 158
e 109 196
e 169 210
e 21 83
e 81 97
e 26 161
e 86 212
e 172 215
e 125 140
e 70 204
e 130 255
e 42 142
e 28 207
e 102 156
e 47 220
e 162 207
e 14 43
e 19 158
e 146 199
e 93 107
e 60 159
e 13 84
e 63 201
e 104 202
e 137 150
e 123 215
e 51 110
e 35 102
e 21 204
e 81 218
e 155 204
e 34 143
e 53 156
e 72 169
e 199 210
e 56 161
e 157 213
e 14 164
e 129 151
e 93 228
e 46 153
e 151 169
e 211 220
e 49 158
e 90 159
e 35 223
e 150 210
e 169 223
e 62 97
e 134 202
e 67 212
e 26 174
e 81 110
e 172 228
e 125 153
e 70 217
e 111 218
e 39 113
e 83 156
e 102 169
e 143 170
e 14 56
e 55 57
e 60 172
e 187 213
e 146 212
e 206 226
e 13 97
e 44 164
e 123 228
e 35 115
e 76 116
e 117 154
e 136 167
e 62 218
e 122 232
e 34 156
e 53 169
e 180 210
e 39 234
e 139 172
e 92 97
e 37 161
e 56 174
e 97 175
e 138 213
e 157 226
e 50 100
e 69 113
e 14 177
e 129 164
e 55 178
e 27 116
e 113 156
e 118 234
e 11 108
e 71 159
e 90 172
e 35 236
e 150 223
e 76 237
e 62 110
e 48 175
e 153 228
e 194 229
e 92 218
e 152 232
e 50 221
e 124 170
e 69 234
e 143 183
e 55 70
e 127 175
e 27 237
e 187 226
e 44 177
e 159 164
e 145 229
e 164 242
e 57 116
e 2 180
e 76 129
e 117 167
e 103 232
e 122 245
e 15 119
e 120 172
e 180 223
e 18 124
e 92 110
e 78 175
e 59 162
e 138 226
e 97 188
e 36 178
e 55 191
e 182 232
e 27 129
e 154 170
e 173 183
e 118 247
e 11 121
e 71 172
e 112 173
e 57 237
e 131 186
e 217 226
e 76 250
e 43 73
e 84 111
e 103 124
e 15 240
e 175 229
e 48 188
e 194 242
e 115 178
e 87 116
e 92 231
e 133 232
e 152 245
e 45 119
e 50 234
e 124 183
e 91 235
e 110 248
e 36 70
e 22 135
e 8 237
e 108 175
e 27 250
e 127 188
e 85 191
e 186 243
e 38 116
e 43 194
e 84 232
e 103 245
e 101 135
e 142 173
e 161 186
e 87 237
e 221 237
e 18 137
e 78 188
e 45 240
e 12 63
e 31 76
e 91 127
e 36 191
e 163 232
e 110 140
e 22 27
e 75 119
e 80 197
e 121 235
e 140 248
e 154 183
e 52 135
e 38 237
e 112 186
e 57 250
e 131 199
e 98 251
e 115 191
e 15 253
e 175 242
e 216 243
e 87 129
e 54 181
e 73 194
e 133 245
e 174 246
e 86 133
e 31 197
e 91 248
e 177 251
e 58 71
e 89 138
e 75 240
e 94 253
e 168 202
e 42 63
e 61 76
e 11 255
e 126 205
e 167 243
e 19 79
e 79 130
e 98 143
e 43 207
e 170 248
e 84 245
e 63 122
e 82 135
e 142 186
e 87 250
e 54 73
e 45 253
e 205 242
e 31 89
e 72 90
e 163 245
e 204 246
e 116 133
e 61 197
e 135 146
e 80 210
e 195 197
e 121 248
e 19 200
e 93 149
e 79 251
e 46 74
e 10 151
e 63 243
e 51 152
e 156 205
e 49 79
e 109 130
e 54 194
e 73 207
e 155 246
e 114 208
e 26 95
e 12 197
e 86 146
e 31 210
e 72 211
e 158 251
e 70 138
e 58 84
e 89 151
e 75 253
e 149 202
e 190 203
e 42 76
e 28 141
e 61 89
e 47 154
e 107 205
e 234 246
e 126 218
e 19 92
e 46 195
e 65 208
e 123 149
e 68 213
e 109 251
e 183 200
e 202 213
e 21 138
e 81 152
e 26 216
e 141 203
e 100 202
e 34 77
e 53 90
e 72 103
e 58 205
e 37 82
e 56 95
e 42 197
e 116 146
e 61 210
e 176 197
e 102 211
e 14 98
e 74 149
e 93 162
e 179 202
e 46 87
e 137 205
e 156 218
e 49 92
e 35 157
e 109 143
e 95 208
e 114 221
e 26 108
e 12 210
e 53 211
e 111 152
e 190 216
e 28 154
e 14 219
e 88 205
e 47 167
e 129 206
e 46 208
e 13 31
e 44 98
e 104 149
e 49 213
e 123 162
e 68 226
e 35 49
e 21 151
e 62 152
e 26 229
e 141 216
e 34 90
e 53 103
e 125 208
e 39 168
e 185 222
e 37 95
e 56 108
e 42 210
e 97 109
e 157 160
e 14 111
e 41 214
e 201 203
e 74 162
e 60 227
e 13 152
e 44 219
e 118 168
e 159 206
e 71 93
e 16 157
e 197 232
e 35 170
e 150 157
e 95 221
e 136 222
e 134 149
e 34 211
e 48 109
e 153 162
e 139 227
e 39 60
e 37 216
e 92 152
e 56 229
e 97 230
e 212 217
e 171 216
e 50 155
e 83 103
e 69 168
e 14 232
e 129 219
e 27 171
e 113 211
e 151 237
e 71 214
e 104 162
e 90 227
e 145 163
e 103 166
e 48 230
e 208 219
e 122 179
e 227 232
e 15 53
e 39 181
e 166 222
e 185 235
e 78 109
e 97 122
e 157 173
e 124 225
e 143 238
e 36 112
e 96 163
e 55 125
e 201 216
e 60 240
e 127 230
e 27 63
e 44 232
e 159 219
e 118 181
e 11 55
e 219 233
e 178 232
e 57 171
e 2 235
e 117 222
e 222 238
e 15 174
e 48 122
e 134 162
e 120 227
e 139 240
e 133 166
e 78 230
e 152 179
e 97 243
e 212 230
e 50 168
e 69 181
e 196 222
e 55 246
e 36 233
e 110 182
e 22 69
e 8 171
e 154 225
e 11 176
e 71 227
e 90 240
e 131 241
e 84 166
e 103 179
e 48 243
e 87 171
e 166 235
e 207 236
e 18 71
e 59 109
e 78 122
e 119 123
e 45 174
e 124 238
e 210 241
e 143 251
e 36 125
e 163 166
e 22 190
e 108 230
e 127 243
e 140 182
e 85 246
e 11 68
e 52 69
e 38 171
e 219 246
e 2 248
e 184 225
e 98 185
e 117 235
e 222 251
e 203 238
e 115 125
e 15 187
e 101 190
e 120 240
e 161 241
e 175 176
e 59 230
e 133 179
e 119 244
e 31 131
e 91 182
e 36 246
e 110 195
e 196 235
e 108 122
e 22 82
e 94 187
e 75 174
e 154 238
e 173 251
e 214 252
e 52 190
e 167 177
e 112 241
e 126 139
e 43 141
e 170 182
e 115 246
e 230 233
e 147 198
e 188 236
e 207 249
e 100 123
e 45 187
e 119 136
e 31 252
e 191 241
e 58 126
e 22 203
e 149 244
e 108 243
e 61 131
e 121 182
e 140 195
e 181 196
e 52 82
e 79 185
e 203 251
e 244 252
e 82 190
e 142 241
e 101 203
e 202 255
e 73 141
e 59 243
e 155 180
e 174 193
e 114 142
e 193 206
e 12 131
e 158 185
e 58 247
e 91 195
e 70 72
e 75 187
e 61 252
e 135 201
e 176 239
e 195 252
e 94 200
e 47 88
e 88 126
e 52 203
e 179 244
e 126 152
e 10 206
e 63 69
e 109 185
e 54 249
e 21 72
e 67 188
e 26 150
e 12 252
e 100 136
e 86 201
e 70 193
e 58 139
e 130 244
e 77 152
e 89 206
e 42 131
e 88 247
e 162 196
e 121 195
e 80 157
e 63 190
e 137 139
e 82 203
e 123 204
e 183 255
e 35 91
e 21 193
e 114 155
e 155 193
e 26 42
e 86 93
e 53 145
e 72 158
e 177 211
e 70 85
e 130 136
e 42 252
e 89 98
e 56 150
e 135 214
e 176 252
e 28 88
e 47 101
e 129 140
e 74 204
e 88 139
e 51 220
e 63 82
e 49 147
e 150 199
e 169 212
e 62 86
e 26 163
e 153 204
e 141 150
e 213 255
e 172 217
e 125 142
e 70 206
e 89 219
e 204 206
e 83 145
e 102 158
e 47 222
e 14 45
e 60 161
e 146 201
e 13 86
e 63 203
e 104 204
e 123 217
e 35 104
e 21 206
e 62 207
e 95 155
e 81 220
e 34 145
e 53 158
e 139 161
e 72 171
e 199 212
e 39 223
e 180 199
e 218 225
e 37 150
e 56 163
e 116 214
e 28 101
e 69 102
e 14 166
e 74 217
e 86 188
e 13 207
e 46 155
e 151 171
e 51 233
e 90 161
e 35 225
e 169 225
e 134 204
e 172 230
e 92 207
e 125 155
e 39 115
e 111 220
e 37 42
e 83 158
e 28 222
e 69 223
e 143 172
e 102 171
e 55 59
e 146 214
e 187 215
e 60 174
e 206 228
e 44 166
e 104 217
e 145 218
e 2 169
e 76 118
e 62 220
e 117 156
e 48 56
e 34 158
e 120 161
e 139 174
e 39 236
e 199 225
e 37 163
e 111 112
e 78 164
e 97 177
e 157 228
e 50 102
e 69 115
e 110 116
e 55 180
e 27 118
e 113 158
e 118 236
e 11 110
e 71 161
e 90 174
e 35 238
e 131 175
e 76 239
e 43 62
e 84 100
e 103 113
e 48 177
e 175 218
e 134 217
e 166 169
e 111 233
e 152 234
e 50 223
e 124 172
e 69 236
e 143 185
e 36 59
e 55 72
e 8 226
e 108 164
e 27 239
e 187 228
e 127 177
e 44 179
e 85 180
e 164 244
e 2 182
e 84 221
e 43 183
e 103 234
e 117 169
e 122 247
e 76 131
e 15 121
e 120 174
e 161 175
e 221 226
e 18 126
e 59 164
e 78 177
e 138 228
e 97 190
e 91 116
e 110 129
e 55 193
e 182 234
e 94 121
e 154 172
e 140 237
e 11 123
e 52 124
e 38 226
e 71 174
e 57 239
e 131 188
e 76 252
e 217 228
e 112 175
e 84 113
e 29 177
e 115 180
e 15 242
e 194 244
e 6 193
e 18 247
e 133 234
e 152 247
e 193 248
e 45 121
e 50 236
e 91 237
e 124 185
e 110 250
e 22 137
e 108 177
e 127 190
e 94 242
e 228 242
e 11 244
e 126 194
e 167 232
e 186 245
e 38 118
e 79 119
e 84 234
e 43 196
e 170 237
e 82 124
e 15 134
e 101 137
e 147 253
e 221 239
e 18 139
e 100 178
e 59 177
e 119 191
e 45 242
e 31 78
e 91 129
e 36 193
e 163 234
e 77 194
e 223 248
e 75 121
e 94 134
e 80 199
e 140 250
e 52 137
e 38 239
e 112 188
e 98 253
e 10 140
e 115 193
e 15 255
e 156 194
e 216 245
e 109 119
e 68 81
e 54 183
e 73 196
e 133 247
e 174 248
e 12 186
e 86 135
e 31 199
e 45 134
e 91 250
e 177 253
e 58 73
e 77 86
e 75 242
e 149 191
e 94 255
e 130 178
e 89 140
e 61 78
e 168 204
e 80 91
e 121 129
e 107 194
e 126 207
e 167 245
e 98 145
e 170 250
e 82 137
e 109 240
e 68 202
e 142 188
e 101 150
e 54 75
e 100 191
e 45 255
e 119 204
e 58 194
e 163 247
e 204 248
e 77 207
e 75 134
e 116 135
e 61 199
e 176 186
e 121 250
e 162 251
e 19 202
e 93 151
e 179 191
e 79 253
e 46 76
e 10 153
e 137 194
e 51 154
e 156 207
e 63 245
e 68 94
e 54 196
e 95 197
e 26 97
e 12 199
e 31 212
e 72 213
e 70 140
e 130 191
e 75 255
e 149 204
e 190 205
e 42 78
e 28 143
e 88 194
e 47 156
e 107 207
e 234 248
e 19 94
e 46 197
e 65 210
e 63 137
e 104 138
e 49 202
e 123 151
e 109 253
e 183 202
e 21 140
e 40 153
e 81 154
e 34 79
e 39 157
e 58 207
e 37 84
e 56 97
e 42 199
e 61 212
e 102 213
e 28 35
e 74 151
e 60 216
e 46 89
e 137 207
e 178 208
e 49 94
e 35 159
e 95 210
e 114 223
e 134 138
e 34 200
e 26 110
e 72 226
e 39 49
e 70 153
e 37 205
e 56 218
e 171 205
e 111 154
e 190 218
e 83 92
e 69 157
e 14 221
e 129 208
e 88 207
e 60 108
e 46 210
e 151 226
e 44 100
e 104 151
e 123 164
e 90 216
e 62 154
e 81 167
e 122 168
e 141 218
e 34 92
e 20 157
e 125 210
e 39 170
e 185 224
e 37 97
e 56 110
e 97 111
e 83 213
e 138 149
e 157 162
e 143 227
e 14 113
e 55 114
e 60 229
e 27 52
e 13 154
e 44 221
e 159 208
e 118 170
e 11 44
e 178 221
e 197 234
e 90 108
e 35 172
e 117 211
e 76 173
e 48 111
e 34 213
e 120 216
e 153 164
e 139 229
e 37 218
e 111 167
e 152 168
e 97 232
e 212 219
e 171 218
e 50 157
e 69 170
e 14 234
e 129 221
e 55 235
e 27 173
e 113 213
e 173 227
e 44 113
e 85 114
e 71 216
e 90 229
e 164 178
e 62 167
e 103 168
e 48 232
e 122 181
e 208 221
e 15 55
e 18 60
e 59 98
e 185 237
e 83 226
e 124 227
e 143 240
e 36 114
e 55 127
e 127 232
e 118 183
e 200 222
e 11 57
e 219 235
e 71 108
e 85 235
e 2 237
e 76 186
e 136 237
e 222 240
e 15 176
e 120 229
e 139 242
e 18 181
e 133 168
e 92 167
e 152 181
e 78 232
e 45 55
e 212 232
e 50 170
e 91 171
e 36 235
e 55 248
e 22 71
e 94 176
e 27 186
e 154 227
e 113 226
e 173 240
e 11 178
e 85 127
e 71 229
e 145 178
e 112 230
e 38 52
e 131 243
e 43 130
e 84 168
e 103 181
e 48 245
e 115 235
e 15 68
e 87 173
e 166 237
e 207 238
e 18 73
e 59 111
e 45 176
e 119 125
e 124 240
e 36 127
e 163 168
e 127 245
e 168 246
e 80 133
e 121 171
e 85 248
e 200 235
e 219 248
e 52 71
e 38 173
e 57 186
e 98 187
e 43 251
e 203 240
e 222 253
e 115 127
e 142 230
e 161 243
e 73 130
e 18 194
e 133 181
e 59 232
e 119 246
e 193 195
e 78 245
e 31 133
e 177 187
e 36 248
e 110 197
e 75 176
e 94 189
e 195 241
e 126 141
e 112 243
e 10 195
e 43 143
e 84 181
e 230 235
e 115 248
e 54 238
e 87 186
e 73 251
e 188 238
e 147 200
e 207 251
e 119 138
e 105 240
e 86 190
e 191 243
e 163 181
e 22 205
e 108 245
e 80 146
e 140 197
e 19 136
e 79 187
e 98 200
e 63 179
e 51 88
e 142 243
e 101 205
e 54 130
e 155 182
e 100 246
e 174 195
e 193 208
e 12 133
e 31 146
e 72 147
e 158 187
e 177 200
e 70 74
e 237 251
e 116 190
e 135 203
e 28 77
e 47 90
e 107 141
e 126 154
e 93 206
e 19 28
e 179 246
e 46 131
e 10 208
e 137 249
e 170 197
e 63 71
e 49 136
e 109 187
e 54 251
e 169 201
e 21 74
e 188 251
e 67 190
e 26 152
e 86 203
e 172 206
e 70 195
e 58 141
e 89 208
e 130 246
e 42 133
e 61 146
e 102 147
e 88 249
e 47 211
e 14 34
e 181 211
e 74 85
e 19 149
e 146 190
e 46 252
e 93 98
e 79 200
e 51 101
e 82 205
e 123 206
e 35 93
e 21 195
e 40 208
e 114 157
e 155 195
e 26 44
e 12 146
e 53 147
e 158 200
e 199 201
e 116 203
e 135 216
e 28 90
e 14 155
e 47 103
e 129 142
e 88 141
e 93 219
e 51 222
e 49 149
e 35 214
e 68 162
e 150 201
e 169 214
e 62 88
e 81 101
e 141 152
e 153 206
e 172 219
e 39 104
e 70 208
e 28 211
e 162 211
e 60 163
